!- Linux Line endings

  Version,24.1;

  SIMULATIONCONTROL,
    Yes,                     !- Do Zone Sizing Calculation
    Yes,                     !- Do System Sizing Calculation
    No,                     !- Do Plant Sizing Calculation
    No,                      !- Run Simulation for Sizing Periods
    Yes,                     !- Run Simulation for Weather File Run Periods
    No,                      !- Do HVAC Sizing Simulation for Sizing Periods
    4;                       !- Maximum Number of HVAC Sizing Simulation Passes

  PERFORMANCEPRECISIONTRADEOFFS,
    No,                      !- Use Coil Direct Solutions
    ScriptF,                 !- Zone Radiant Exchange Algorithm
    Normal,                  !- Override Mode
    0.3;                     !- MaxZoneTempDiff

  Building,
    Ref Bldg Medium Office New2004_v1.3_5.0,  !- Name
    0,                       !- North Axis {deg}
    City,                    !- Terrain
    0.04,                    !- Loads Convergence Tolerance Value {W}
    0.2,                     !- Temperature Convergence Tolerance Value {deltaC}
    FullExterior,            !- Solar Distribution
    25,                      !- Maximum Number of Warmup Days
    6;                       !- Minimum Number of Warmup Days

  SHADOWCALCULATION,
    PolygonClipping,         !- Shading Calculation Method
    Periodic,                !- Shading Calculation Update Frequency Method
    7,                       !- Shading Calculation Update Frequency
    15000,                   !- Maximum Figures in Shadow Overlap Calculations
    SutherlandHodgman,       !- Polygon Clipping Algorithm
    512,                     !- Pixel Counting Resolution
    SimpleSkyDiffuseModeling,!- Sky Diffuse Modeling Algorithm
    No,                      !- Output External Shading Calculation Results
    No,                      !- Disable Self-Shading Within Shading Zone Groups
    No;                      !- Disable Self-Shading From Shading Zone Groups to Other Zones

  SURFACECONVECTIONALGORITHM:INSIDE,TARP;

  SURFACECONVECTIONALGORITHM:OUTSIDE,TARP;

  HEATBALANCEALGORITHM,ConductionTransferFunction,1000,0.1,1000;

  ZONEAIRHEATBALANCEALGORITHM,
    ThirdOrderBackwardDifference,  !- Algorithm
    No;                      !- Do Space Heat Balance for Sizing

  ZONEAIRCONTAMINANTBALANCE,
    Yes,                     !- Carbon Dioxide Concentration
    Outdoor CO2 Schedule,    !- Outdoor Carbon Dioxide Schedule Name
    No;                      !- Generic Contaminant Concentration

  TIMESTEP,6;

  HVACSYSTEMROOTFINDINGALGORITHM,
    RegulaFalsiThenBisection,!- Algorithm
    4;                       !- Number of Iterations Before Algorithm Switch


  Site:Location,
    Victoria,     !- Site:Location Name
     48.65,     !- Latitude {N+ S-}
     -123.43,     !- Longitude {W- E+}
     -8.0,     !- Time Zone Relative to GMT {GMT+/-}
     19.5;     !- Elevation {m}

  SIZINGPERIOD:WEATHERFILECONDITIONTYPE,
    EPW_peak_cool,           !- Name
    SummerExtreme,           !- Period Selection
    SummerDesignDay,         !- Day of Week for Start Day
    Yes,                     !- Use Weather File Daylight Saving Period
    Yes;                     !- Use Weather File Rain and Snow Indicators

  SIZINGPERIOD:WEATHERFILECONDITIONTYPE,
    EPW_peak_heat,           !- Name
    WinterExtreme,           !- Period Selection
    WinterDesignDay,         !- Day of Week for Start Day
    Yes,                     !- Use Weather File Daylight Saving Period
    No;                      !- Use Weather File Rain and Snow Indicators

  RUNPERIOD,
    Run Period 1,            !- Name
    1,                       !- Begin Month
    1,                       !- Begin Day of Month
    2016,                    !- Begin Year
    12,                      !- End Month
    31,                      !- End Day of Month
    2016,                    !- End Year
    ,                        !- Day of Week for Start Day
    No,                      !- Use Weather File Holidays and Special Days
    Yes,                     !- Use Weather File Daylight Saving Period
    No,                      !- Apply Weekend Holiday Rule
    Yes,                     !- Use Weather File Rain Indicators
    Yes,                     !- Use Weather File Snow Indicators
    No;                      !- Treat Weather as Actual

  SCHEDULETYPELIMITS,
    ActivityLevel,           !- Name
    0,                       !- Lower Limit Value
    ,                        !- Upper Limit Value
    Continuous,              !- Numeric Type
    ActivityLevel;           !- Unit Type

  SCHEDULETYPELIMITS,
    Any Number,              !- Name
    ,                        !- Lower Limit Value
    ,                        !- Upper Limit Value
    ,                        !- Numeric Type
    Dimensionless;           !- Unit Type

  SCHEDULETYPELIMITS,
    Fractional,              !- Name
    0,                       !- Lower Limit Value
    1,                       !- Upper Limit Value
    Continuous,              !- Numeric Type
    Percent;                 !- Unit Type

  SCHEDULETYPELIMITS,
    OnOff,                   !- Name
    0,                       !- Lower Limit Value
    1,                       !- Upper Limit Value
    Discrete,                !- Numeric Type
    Availability;            !- Unit Type

  SCHEDULETYPELIMITS,
    Temperature,             !- Name
    ,                        !- Lower Limit Value
    ,                        !- Upper Limit Value
    Continuous,              !- Numeric Type
    Temperature;             !- Unit Type

  SCHEDULETYPELIMITS,
    Velocity,                !- Name
    0,                       !- Lower Limit Value
    ,                        !- Upper Limit Value
    Continuous,              !- Numeric Type
    Velocity;                !- Unit Type

  SCHEDULE:COMPACT,
    NECB A Occupancy,        !- Name
    Fractional,              !- Schedule Type Limits Name
    Through: 12/31,          !- Field 1
    For: WinterDesignDay,    !- Field 2
    Until: 24:00,0,          !- Field 3
    For: SummerDesignDay,    !- Field 5
    Until: 24:00,1,          !- Field 6
    For: WeekDays,           !- Field 8
    Until: 1:00,0,           !- Field 9
    Until: 2:00,0,           !- Field 11
    Until: 3:00,0,           !- Field 13
    Until: 4:00,0,           !- Field 15
    Until: 5:00,0,           !- Field 17
    Until: 6:00,0,           !- Field 19
    Until: 7:00,0.1,         !- Field 21
    Until: 8:00,0.7,         !- Field 23
    Until: 9:00,0.9,         !- Field 25
    Until: 10:00,0.9,        !- Field 27
    Until: 11:00,0.9,        !- Field 29
    Until: 12:00,0.5,        !- Field 31
    Until: 13:00,0.5,        !- Field 33
    Until: 14:00,0.9,        !- Field 35
    Until: 15:00,0.9,        !- Field 37
    Until: 16:00,0.9,        !- Field 39
    Until: 17:00,0.7,        !- Field 41
    Until: 18:00,0.3,        !- Field 43
    Until: 19:00,0.1,        !- Field 45
    Until: 20:00,0.1,        !- Field 47
    Until: 21:00,0.1,        !- Field 49
    Until: 22:00,0.1,        !- Field 51
    Until: 23:00,0,          !- Field 53
    Until: 24:00,0,          !- Field 55
    For: Saturday,           !- Field 57
    Until: 1:00,0,           !- Field 58
    Until: 2:00,0,           !- Field 60
    Until: 3:00,0,           !- Field 62
    Until: 4:00,0,           !- Field 64
    Until: 5:00,0,           !- Field 66
    Until: 6:00,0,           !- Field 68
    Until: 7:00,0,           !- Field 70
    Until: 8:00,0,           !- Field 72
    Until: 9:00,0,           !- Field 74
    Until: 10:00,0,          !- Field 76
    Until: 11:00,0,          !- Field 78
    Until: 12:00,0,          !- Field 80
    Until: 13:00,0,          !- Field 82
    Until: 14:00,0,          !- Field 84
    Until: 15:00,0,          !- Field 86
    Until: 16:00,0,          !- Field 88
    Until: 17:00,0,          !- Field 90
    Until: 18:00,0,          !- Field 92
    Until: 19:00,0,          !- Field 94
    Until: 20:00,0,          !- Field 96
    Until: 21:00,0,          !- Field 98
    Until: 22:00,0,          !- Field 100
    Until: 23:00,0,          !- Field 102
    Until: 24:00,0,          !- Field 104
    For: Sunday AllOtherDays,!- Field 106
    Until: 1:00,0,           !- Field 107
    Until: 2:00,0,           !- Field 109
    Until: 3:00,0,           !- Field 111
    Until: 4:00,0,           !- Field 113
    Until: 5:00,0,           !- Field 115
    Until: 6:00,0,           !- Field 117
    Until: 7:00,0,           !- Field 119
    Until: 8:00,0,           !- Field 121
    Until: 9:00,0,           !- Field 123
    Until: 10:00,0,          !- Field 125
    Until: 11:00,0,          !- Field 127
    Until: 12:00,0,          !- Field 129
    Until: 13:00,0,          !- Field 131
    Until: 14:00,0,          !- Field 133
    Until: 15:00,0,          !- Field 135
    Until: 16:00,0,          !- Field 137
    Until: 17:00,0,          !- Field 139
    Until: 18:00,0,          !- Field 141
    Until: 19:00,0,          !- Field 143
    Until: 20:00,0,          !- Field 145
    Until: 21:00,0,          !- Field 147
    Until: 22:00,0,          !- Field 149
    Until: 23:00,0,          !- <none>
    Until: 24:00,0;          !- <none>

  SCHEDULE:COMPACT,
    NECB A Lighting,         !- Name
    Fractional,              !- Schedule Type Limits Name
    Through: 12/31,          !- Field 1
    For: WinterDesignDay,    !- Field 2
    Until: 24:00,0,          !- Field 3
    For: SummerDesignDay,    !- Field 5
    Until: 24:00,1,          !- Field 6
    For: WeekDays,           !- Field 8
    Until: 1:00,0.05,        !- Field 9
    Until: 2:00,0.05,        !- Field 11
    Until: 3:00,0.05,        !- Field 13
    Until: 4:00,0.05,        !- Field 15
    Until: 5:00,0.05,        !- Field 17
    Until: 6:00,0.05,        !- Field 19
    Until: 7:00,0.3,         !- Field 21
    Until: 8:00,0.8,         !- Field 23
    Until: 9:00,0.9,         !- Field 25
    Until: 10:00,0.9,        !- Field 27
    Until: 11:00,0.9,        !- Field 29
    Until: 12:00,0.9,        !- Field 31
    Until: 13:00,0.9,        !- Field 33
    Until: 14:00,0.9,        !- Field 35
    Until: 15:00,0.9,        !- Field 37
    Until: 16:00,0.9,        !- Field 39
    Until: 17:00,0.8,        !- Field 41
    Until: 18:00,0.5,        !- Field 43
    Until: 19:00,0.3,        !- Field 45
    Until: 20:00,0.3,        !- Field 47
    Until: 21:00,0.1,        !- Field 49
    Until: 22:00,0.1,        !- Field 51
    Until: 23:00,0.05,       !- Field 53
    Until: 24:00,0.05,       !- Field 55
    For: Saturday,           !- Field 57
    Until: 1:00,0.05,        !- Field 58
    Until: 2:00,0.05,        !- Field 60
    Until: 3:00,0.05,        !- Field 62
    Until: 4:00,0.05,        !- Field 64
    Until: 5:00,0.05,        !- Field 66
    Until: 6:00,0.05,        !- Field 68
    Until: 7:00,0.05,        !- Field 70
    Until: 8:00,0.05,        !- Field 72
    Until: 9:00,0.05,        !- Field 74
    Until: 10:00,0.05,       !- Field 76
    Until: 11:00,0.05,       !- Field 78
    Until: 12:00,0.05,       !- Field 80
    Until: 13:00,0.05,       !- Field 82
    Until: 14:00,0.05,       !- Field 84
    Until: 15:00,0.05,       !- Field 86
    Until: 16:00,0.05,       !- Field 88
    Until: 17:00,0.05,       !- Field 90
    Until: 18:00,0.05,       !- Field 92
    Until: 19:00,0.05,       !- Field 94
    Until: 20:00,0.05,       !- Field 96
    Until: 21:00,0.05,       !- Field 98
    Until: 22:00,0.05,       !- Field 100
    Until: 23:00,0.05,       !- Field 102
    Until: 24:00,0.05,       !- Field 104
    For: Sunday AllOtherDays,!- Field 106
    Until: 1:00,0.05,        !- Field 107
    Until: 2:00,0.05,        !- Field 109
    Until: 3:00,0.05,        !- Field 111
    Until: 4:00,0.05,        !- Field 113
    Until: 5:00,0.05,        !- Field 115
    Until: 6:00,0.05,        !- Field 117
    Until: 7:00,0.05,        !- Field 119
    Until: 8:00,0.05,        !- Field 121
    Until: 9:00,0.05,        !- Field 123
    Until: 10:00,0.05,       !- Field 125
    Until: 11:00,0.05,       !- Field 127
    Until: 12:00,0.05,       !- Field 129
    Until: 13:00,0.05,       !- Field 131
    Until: 14:00,0.05,       !- Field 133
    Until: 15:00,0.05,       !- Field 135
    Until: 16:00,0.05,       !- Field 137
    Until: 17:00,0.05,       !- Field 139
    Until: 18:00,0.05,       !- Field 141
    Until: 19:00,0.05,       !- Field 143
    Until: 20:00,0.05,       !- Field 145
    Until: 21:00,0.05,       !- Field 147
    Until: 22:00,0.05,       !- Field 149
    Until: 23:00,0.05,       !- <none>
    Until: 24:00,0.05;       !- <none>

  SCHEDULE:COMPACT,
    NECB A Receptacle,       !- Name
    Fractional,              !- Schedule Type Limits Name
    Through: 12/31,          !- Field 1
    For: WinterDesignDay,    !- Field 2
    Until: 24:00,0,          !- Field 3
    For: SummerDesignDay,    !- Field 5
    Until: 24:00,1,          !- Field 6
    For: WeekDays,           !- Field 8
    Until: 1:00,0.02,        !- Field 9
    Until: 2:00,0.02,        !- Field 11
    Until: 3:00,0.02,        !- Field 13
    Until: 4:00,0.02,        !- Field 15
    Until: 5:00,0.02,        !- Field 17
    Until: 6:00,0.02,        !- Field 19
    Until: 7:00,0.3,         !- Field 21
    Until: 8:00,0.8,         !- Field 23
    Until: 9:00,0.9,         !- Field 25
    Until: 10:00,0.9,        !- Field 27
    Until: 11:00,0.9,        !- Field 29
    Until: 12:00,0.9,        !- Field 31
    Until: 13:00,0.9,        !- Field 33
    Until: 14:00,0.9,        !- Field 35
    Until: 15:00,0.9,        !- Field 37
    Until: 16:00,0.9,        !- Field 39
    Until: 17:00,0.9,        !- Field 41
    Until: 18:00,0.5,        !- Field 43
    Until: 19:00,0.3,        !- Field 45
    Until: 20:00,0.3,        !- Field 47
    Until: 21:00,0.2,        !- Field 49
    Until: 22:00,0.2,        !- Field 51
    Until: 23:00,0.2,        !- Field 53
    Until: 24:00,0.2,        !- Field 55
    For: Saturday,           !- Field 57
    Until: 1:00,0.2,         !- Field 58
    Until: 2:00,0.2,         !- Field 60
    Until: 3:00,0.2,         !- Field 62
    Until: 4:00,0.2,         !- Field 64
    Until: 5:00,0.2,         !- Field 66
    Until: 6:00,0.2,         !- Field 68
    Until: 7:00,0.2,         !- Field 70
    Until: 8:00,0.2,         !- Field 72
    Until: 9:00,0.2,         !- Field 74
    Until: 10:00,0.2,        !- Field 76
    Until: 11:00,0.2,        !- Field 78
    Until: 12:00,0.2,        !- Field 80
    Until: 13:00,0.2,        !- Field 82
    Until: 14:00,0.2,        !- Field 84
    Until: 15:00,0.2,        !- Field 86
    Until: 16:00,0.2,        !- Field 88
    Until: 17:00,0.2,        !- Field 90
    Until: 18:00,0.2,        !- Field 92
    Until: 19:00,0.2,        !- Field 94
    Until: 20:00,0.2,        !- Field 96
    Until: 21:00,0.2,        !- Field 98
    Until: 22:00,0.2,        !- Field 100
    Until: 23:00,0.2,        !- Field 102
    Until: 24:00,0.2,        !- Field 104
    For: Sunday AllOtherDays,!- Field 106
    Until: 1:00,0.2,         !- Field 107
    Until: 2:00,0.2,         !- Field 109
    Until: 3:00,0.2,         !- Field 111
    Until: 4:00,0.2,         !- Field 113
    Until: 5:00,0.2,         !- Field 115
    Until: 6:00,0.2,         !- Field 117
    Until: 7:00,0.2,         !- Field 119
    Until: 8:00,0.2,         !- Field 121
    Until: 9:00,0.2,         !- Field 123
    Until: 10:00,0.2,        !- Field 125
    Until: 11:00,0.2,        !- Field 127
    Until: 12:00,0.2,        !- Field 129
    Until: 13:00,0.2,        !- Field 131
    Until: 14:00,0.2,        !- Field 133
    Until: 15:00,0.2,        !- Field 135
    Until: 16:00,0.2,        !- Field 137
    Until: 17:00,0.2,        !- Field 139
    Until: 18:00,0.2,        !- Field 141
    Until: 19:00,0.2,        !- Field 143
    Until: 20:00,0.2,        !- Field 145
    Until: 21:00,0.2,        !- Field 147
    Until: 22:00,0.2,        !- Field 149
    Until: 23:00,0.2,        !- <none>
    Until: 24:00,0.2;        !- <none>

  SCHEDULE:COMPACT,
    NECB A Fans,             !- Name
    Fractional,              !- Schedule Type Limits Name
    Through: 12/31,          !- Field 1
    For: WinterDesignDay,    !- Field 2
    Until: 24:00,1,          !- Field 3
    For: SummerDesignDay,    !- Field 5
    Until: 24:00,1,          !- Field 6
    For: WeekDays,           !- Field 8
    Until: 1:00,0,           !- Field 9
    Until: 2:00,0,           !- Field 11
    Until: 3:00,0,           !- Field 13
    Until: 4:00,0,           !- Field 15
    Until: 5:00,0,           !- Field 17
    Until: 6:00,1,           !- Field 19
    Until: 7:00,1,           !- Field 21
    Until: 8:00,1,           !- Field 23
    Until: 9:00,1,           !- Field 25
    Until: 10:00,1,          !- Field 27
    Until: 11:00,1,          !- Field 29
    Until: 12:00,1,          !- Field 31
    Until: 13:00,1,          !- Field 33
    Until: 14:00,1,          !- Field 35
    Until: 15:00,1,          !- Field 37
    Until: 16:00,1,          !- Field 39
    Until: 17:00,1,          !- Field 41
    Until: 18:00,1,          !- Field 43
    Until: 19:00,1,          !- Field 45
    Until: 20:00,1,          !- Field 47
    Until: 21:00,0,          !- Field 49
    Until: 22:00,0,          !- Field 51
    Until: 23:00,0,          !- Field 53
    Until: 24:00,0,          !- Field 55
    For: Saturday,           !- Field 57
    Until: 1:00,0,           !- Field 58
    Until: 2:00,0,           !- Field 60
    Until: 3:00,0,           !- Field 62
    Until: 4:00,0,           !- Field 64
    Until: 5:00,0,           !- Field 66
    Until: 6:00,0,           !- Field 68
    Until: 7:00,0,           !- Field 70
    Until: 8:00,0,           !- Field 72
    Until: 9:00,0,           !- Field 74
    Until: 10:00,0,          !- Field 76
    Until: 11:00,0,          !- Field 78
    Until: 12:00,0,          !- Field 80
    Until: 13:00,0,          !- Field 82
    Until: 14:00,0,          !- Field 84
    Until: 15:00,0,          !- Field 86
    Until: 16:00,0,          !- Field 88
    Until: 17:00,0,          !- Field 90
    Until: 18:00,0,          !- Field 92
    Until: 19:00,0,          !- Field 94
    Until: 20:00,0,          !- Field 96
    Until: 21:00,0,          !- Field 98
    Until: 22:00,0,          !- Field 100
    Until: 23:00,0,          !- Field 102
    Until: 24:00,0,          !- Field 104
    For: Sunday AllOtherDays,!- Field 106
    Until: 1:00,0,           !- Field 107
    Until: 2:00,0,           !- Field 109
    Until: 3:00,0,           !- Field 111
    Until: 4:00,0,           !- Field 113
    Until: 5:00,0,           !- Field 115
    Until: 6:00,0,           !- Field 117
    Until: 7:00,0,           !- Field 119
    Until: 8:00,0,           !- Field 121
    Until: 9:00,0,           !- Field 123
    Until: 10:00,0,          !- Field 125
    Until: 11:00,0,          !- Field 127
    Until: 12:00,0,          !- Field 129
    Until: 13:00,0,          !- Field 131
    Until: 14:00,0,          !- Field 133
    Until: 15:00,0,          !- Field 135
    Until: 16:00,0,          !- Field 137
    Until: 17:00,0,          !- Field 139
    Until: 18:00,0,          !- Field 141
    Until: 19:00,0,          !- Field 143
    Until: 20:00,0,          !- Field 145
    Until: 21:00,0,          !- Field 147
    Until: 22:00,0,          !- Field 149
    Until: 23:00,0,          !- <none>
    Until: 24:00,0;          !- <none>

  SCHEDULE:COMPACT,
    NECB A Heating,          !- Name
    Temperature,             !- Schedule Type Limits Name
    Through: 12/31,          !- Field 1
    For: WinterDesignDay,    !- Field 2
    Until: 24:00,20.5,         !- Field 3
    For: SummerDesignDay,    !- Field 5
    Until: 24:00,20.5,         !- Field 6
    For: WeekDays,           !- Field 8
    Until: 6:00,18.5,          !- Field 9
    Until: 20:00,20.5,         !- Field 11
    Until: 24:00,18.5,         !- Field 13
    For: Saturday,           !- Field 15
    Until: 24:00,18.5,         !- Field 16
    For: Sunday AllOtherDays,!- Field 18
    Until: 24:00,18.5;         !- Field 19

  SCHEDULE:COMPACT,
    NECB A Cooling,          !- Name
    Temperature,             !- Schedule Type Limits Name
    Through: 12/31,          !- Field 1
    For: WinterDesignDay,    !- Field 2
    Until: 24:00,23.5,         !- Field 3
    For: SummerDesignDay,    !- Field 5
    Until: 24:00,23.5,         !- Field 6
    For: WeekDays,           !- Field 8
    Until: 6:00,25.5,          !- Field 9
    Until: 20:00,23.5,         !- Field 11
    Until: 24:00,25.5,         !- Field 13
    For: Saturday,           !- Field 15
    Until: 24:00,25.5,         !- Field 16
    For: Sunday AllOtherDays,!- Field 18
    Until: 24:00,25.5;         !- Field 19

  SCHEDULE:COMPACT,
    NECB A SWH,              !- Name
    Fractional,              !- Schedule Type Limits Name
    Through: 12/31,          !- Field 1
    For: WinterDesignDay,    !- Field 2
    Until: 24:00,1,          !- Field 3
    For: SummerDesignDay,    !- Field 5
    Until: 24:00,1,          !- Field 6
    For: WeekDays,           !- Field 8
    Until: 1:00,0.05,        !- Field 9
    Until: 2:00,0.05,        !- Field 11
    Until: 3:00,0.05,        !- Field 13
    Until: 4:00,0.05,        !- Field 15
    Until: 5:00,0.05,        !- Field 17
    Until: 6:00,0.05,        !- Field 19
    Until: 7:00,0.1,         !- Field 21
    Until: 8:00,0.5,         !- Field 23
    Until: 9:00,0.5,         !- Field 25
    Until: 10:00,0.9,        !- Field 27
    Until: 11:00,0.9,        !- Field 29
    Until: 12:00,0.9,        !- Field 31
    Until: 13:00,0.9,        !- Field 33
    Until: 14:00,0.9,        !- Field 35
    Until: 15:00,0.9,        !- Field 37
    Until: 16:00,0.7,        !- Field 39
    Until: 17:00,0.5,        !- Field 41
    Until: 18:00,0.3,        !- Field 43
    Until: 19:00,0.2,        !- Field 45
    Until: 20:00,0.2,        !- Field 47
    Until: 21:00,0.2,        !- Field 49
    Until: 22:00,0.05,       !- Field 51
    Until: 23:00,0.05,       !- Field 53
    Until: 24:00,0.05,       !- Field 55
    For: Saturday,           !- Field 57
    Until: 1:00,0.05,        !- Field 58
    Until: 2:00,0.05,        !- Field 60
    Until: 3:00,0.05,        !- Field 62
    Until: 4:00,0.05,        !- Field 64
    Until: 5:00,0.05,        !- Field 66
    Until: 6:00,0.05,        !- Field 68
    Until: 7:00,0.05,        !- Field 70
    Until: 8:00,0.05,        !- Field 72
    Until: 9:00,0.05,        !- Field 74
    Until: 10:00,0.05,       !- Field 76
    Until: 11:00,0.05,       !- Field 78
    Until: 12:00,0.05,       !- Field 80
    Until: 13:00,0.05,       !- Field 82
    Until: 14:00,0.05,       !- Field 84
    Until: 15:00,0.05,       !- Field 86
    Until: 16:00,0.05,       !- Field 88
    Until: 17:00,0.05,       !- Field 90
    Until: 18:00,0.05,       !- Field 92
    Until: 19:00,0.05,       !- Field 94
    Until: 20:00,0.05,       !- Field 96
    Until: 21:00,0.05,       !- Field 98
    Until: 22:00,0.05,       !- Field 100
    Until: 23:00,0.05,       !- Field 102
    Until: 24:00,0.05,       !- Field 104
    For: Sunday AllOtherDays,!- Field 106
    Until: 1:00,0.05,        !- Field 107
    Until: 2:00,0.05,        !- Field 109
    Until: 3:00,0.05,        !- Field 111
    Until: 4:00,0.05,        !- Field 113
    Until: 5:00,0.05,        !- Field 115
    Until: 6:00,0.05,        !- Field 117
    Until: 7:00,0.05,        !- Field 119
    Until: 8:00,0.05,        !- Field 121
    Until: 9:00,0.05,        !- Field 123
    Until: 10:00,0.05,       !- Field 125
    Until: 11:00,0.05,       !- Field 127
    Until: 12:00,0.05,       !- Field 129
    Until: 13:00,0.05,       !- Field 131
    Until: 14:00,0.05,       !- Field 133
    Until: 15:00,0.05,       !- Field 135
    Until: 16:00,0.05,       !- Field 137
    Until: 17:00,0.05,       !- Field 139
    Until: 18:00,0.05,       !- Field 141
    Until: 19:00,0.05,       !- Field 143
    Until: 20:00,0.05,       !- Field 145
    Until: 21:00,0.05,       !- Field 147
    Until: 22:00,0.05,       !- Field 149
    Until: 23:00,0.05,       !- <none>
    Until: 24:00,0.05;       !- <none>

  SCHEDULE:COMPACT,
    NECB A Dehumid,          !- Name
    Any Number,              !- Schedule Type Limits Name
    Through: 12/31,          !- Field 1
    For: WinterDesignDay,    !- Field 2
    Until: 24:00,60,         !- Field 3
    For: SummerDesignDay,    !- Field 5
    Until: 24:00,60,         !- Field 6
    For: WeekDays,           !- Field 8
    Until: 1:00,100,         !- Field 9
    Until: 2:00,100,         !- Field 11
    Until: 3:00,100,         !- Field 13
    Until: 4:00,100,         !- Field 15
    Until: 5:00,100,         !- Field 17
    Until: 6:00,60,          !- Field 19
    Until: 7:00,60,          !- Field 21
    Until: 8:00,60,          !- Field 23
    Until: 9:00,60,          !- Field 25
    Until: 10:00,60,         !- Field 27
    Until: 11:00,60,         !- Field 29
    Until: 12:00,60,         !- Field 31
    Until: 13:00,60,         !- Field 33
    Until: 14:00,60,         !- Field 35
    Until: 15:00,60,         !- Field 37
    Until: 16:00,60,         !- Field 39
    Until: 17:00,60,         !- Field 41
    Until: 18:00,60,         !- Field 43
    Until: 19:00,60,         !- Field 45
    Until: 20:00,60,         !- Field 47
    Until: 21:00,100,        !- Field 49
    Until: 22:00,100,        !- Field 51
    Until: 23:00,100,        !- Field 53
    Until: 24:00,100,        !- Field 55
    For: Saturday,           !- Field 57
    Until: 1:00,100,         !- Field 58
    Until: 2:00,100,         !- Field 60
    Until: 3:00,100,         !- Field 62
    Until: 4:00,100,         !- Field 64
    Until: 5:00,100,         !- Field 66
    Until: 6:00,100,         !- Field 68
    Until: 7:00,100,         !- Field 70
    Until: 8:00,100,         !- Field 72
    Until: 9:00,100,         !- Field 74
    Until: 10:00,100,        !- Field 76
    Until: 11:00,100,        !- Field 78
    Until: 12:00,100,        !- Field 80
    Until: 13:00,100,        !- Field 82
    Until: 14:00,100,        !- Field 84
    Until: 15:00,100,        !- Field 86
    Until: 16:00,100,        !- Field 88
    Until: 17:00,100,        !- Field 90
    Until: 18:00,100,        !- Field 92
    Until: 19:00,100,        !- Field 94
    Until: 20:00,100,        !- Field 96
    Until: 21:00,100,        !- Field 98
    Until: 22:00,100,        !- Field 100
    Until: 23:00,100,        !- Field 102
    Until: 24:00,100,        !- Field 104
    For: Sunday AllOtherDays,!- Field 106
    Until: 1:00,100,         !- Field 107
    Until: 2:00,100,         !- Field 109
    Until: 3:00,100,         !- Field 111
    Until: 4:00,100,         !- Field 113
    Until: 5:00,100,         !- Field 115
    Until: 6:00,100,         !- Field 117
    Until: 7:00,100,         !- Field 119
    Until: 8:00,100,         !- Field 121
    Until: 9:00,100,         !- Field 123
    Until: 10:00,100,        !- Field 125
    Until: 11:00,100,        !- Field 127
    Until: 12:00,100,        !- Field 129
    Until: 13:00,100,        !- Field 131
    Until: 14:00,100,        !- Field 133
    Until: 15:00,100,        !- Field 135
    Until: 16:00,100,        !- Field 137
    Until: 17:00,100,        !- Field 139
    Until: 18:00,100,        !- Field 141
    Until: 19:00,100,        !- Field 143
    Until: 20:00,100,        !- Field 145
    Until: 21:00,100,        !- Field 147
    Until: 22:00,100,        !- Field 149
    Until: 23:00,100,        !- <none>
    Until: 24:00,100;        !- <none>

  SCHEDULE:COMPACT,
    NECB A Humid,            !- Name
    Any Number,              !- Schedule Type Limits Name
    Through: 12/31,          !- Field 1
    For: WinterDesignDay,    !- Field 2
    Until: 24:00,30,         !- Field 3
    For: SummerDesignDay,    !- Field 5
    Until: 24:00,30,         !- Field 6
    For: WeekDays,           !- Field 8
    Until: 1:00,0,           !- Field 9
    Until: 2:00,0,           !- Field 11
    Until: 3:00,0,           !- Field 13
    Until: 4:00,0,           !- Field 15
    Until: 5:00,0,           !- Field 17
    Until: 6:00,30,          !- Field 19
    Until: 7:00,30,          !- Field 21
    Until: 8:00,30,          !- Field 23
    Until: 9:00,30,          !- Field 25
    Until: 10:00,30,         !- Field 27
    Until: 11:00,30,         !- Field 29
    Until: 12:00,30,         !- Field 31
    Until: 13:00,30,         !- Field 33
    Until: 14:00,30,         !- Field 35
    Until: 15:00,30,         !- Field 37
    Until: 16:00,30,         !- Field 39
    Until: 17:00,30,         !- Field 41
    Until: 18:00,30,         !- Field 43
    Until: 19:00,30,         !- Field 45
    Until: 20:00,30,         !- Field 47
    Until: 21:00,0,          !- Field 49
    Until: 22:00,0,          !- Field 51
    Until: 23:00,0,          !- Field 53
    Until: 24:00,0,          !- Field 55
    For: Saturday,           !- Field 57
    Until: 1:00,0,           !- Field 58
    Until: 2:00,0,           !- Field 60
    Until: 3:00,0,           !- Field 62
    Until: 4:00,0,           !- Field 64
    Until: 5:00,0,           !- Field 66
    Until: 6:00,0,           !- Field 68
    Until: 7:00,0,           !- Field 70
    Until: 8:00,0,           !- Field 72
    Until: 9:00,0,           !- Field 74
    Until: 10:00,0,          !- Field 76
    Until: 11:00,0,          !- Field 78
    Until: 12:00,0,          !- Field 80
    Until: 13:00,0,          !- Field 82
    Until: 14:00,0,          !- Field 84
    Until: 15:00,0,          !- Field 86
    Until: 16:00,0,          !- Field 88
    Until: 17:00,0,          !- Field 90
    Until: 18:00,0,          !- Field 92
    Until: 19:00,0,          !- Field 94
    Until: 20:00,0,          !- Field 96
    Until: 21:00,0,          !- Field 98
    Until: 22:00,0,          !- Field 100
    Until: 23:00,0,          !- Field 102
    Until: 24:00,0,          !- Field 104
    For: Sunday AllOtherDays,!- Field 106
    Until: 1:00,0,           !- Field 107
    Until: 2:00,0,           !- Field 109
    Until: 3:00,0,           !- Field 111
    Until: 4:00,0,           !- Field 113
    Until: 5:00,0,           !- Field 115
    Until: 6:00,0,           !- Field 117
    Until: 7:00,0,           !- Field 119
    Until: 8:00,0,           !- Field 121
    Until: 9:00,0,           !- Field 123
    Until: 10:00,0,          !- Field 125
    Until: 11:00,0,          !- Field 127
    Until: 12:00,0,          !- Field 129
    Until: 13:00,0,          !- Field 131
    Until: 14:00,0,          !- Field 133
    Until: 15:00,0,          !- Field 135
    Until: 16:00,0,          !- Field 137
    Until: 17:00,0,          !- Field 139
    Until: 18:00,0,          !- Field 141
    Until: 19:00,0,          !- Field 143
    Until: 20:00,0,          !- Field 145
    Until: 21:00,0,          !- Field 147
    Until: 22:00,0,          !- Field 149
    Until: 23:00,0,          !- <none>
    Until: 24:00,0;          !- <none>

  SCHEDULE:CONSTANT,Zero Output,Any Number,0;

  SCHEDULE:CONSTANT,Always On Schedule,OnOff,1;

  SCHEDULE:CONSTANT,Activity Schedule,Any Number,130;

  SCHEDULE:CONSTANT,Air Velocity Schedule,Velocity,0.2;

  SCHEDULE:CONSTANT,Work Efficiency Schedule,Fractional,0;

  SCHEDULE:CONSTANT,ZAD Schedule,Any Number,1.0;

  SCHEDULE:CONSTANT,Outdoor CO2 Schedule,Any Number,400;

  SCHEDULE:CONSTANT,DHW temp,Temperature,60;

  SCHEDULE:CONSTANT,DHW Inlet temp,Temperature,10;

  SCHEDULE:CONSTANT,RH High 60,Any Number,60;

  SCHEDULE:CONSTANT,RH Low 30,Any Number,30;

  SCHEDULE:CONSTANT,Thermostat Control Type 4,Any Number,4;

  MATERIAL,
    1/2IN Gypsum,            !- Name
    Smooth,                  !- Roughness
    0.0127,                  !- Thickness {m}
    0.16,                    !- Conductivity {W/m-K}
    784.9,                   !- Density {kg/m3}
    830,                     !- Specific Heat {J/kg-K}
    0.9,                     !- Thermal Absorptance
    0.4,                     !- Solar Absorptance
    0.4;                     !- Visible Absorptance

  MATERIAL,
    1IN Stucco,              !- Name
    Smooth,                  !- Roughness
    0.0253,                  !- Thickness {m}
    0.6918,                  !- Conductivity {W/m-K}
    1858,                    !- Density {kg/m3}
    837,                     !- Specific Heat {J/kg-K}
    0.9,                     !- Thermal Absorptance
    0.7,                     !- Solar Absorptance
    0.92;                    !- Visible Absorptance

  MATERIAL,
    25mm wood,               !- Name
    MediumSmooth,            !- Roughness
    0.0254,                  !- Thickness {m}
    0.15,                    !- Conductivity {W/m-K}
    608,                     !- Density {kg/m3}
    1630,                    !- Specific Heat {J/kg-K}
    0.9,                     !- Thermal Absorptance
    0.5,                     !- Solar Absorptance
    0.5;                     !- Visible Absorptance

  MATERIAL,
    Floor Mass,              !- Name
    MediumRough,             !- Roughness
    0.045,                    !- Thickness {m}
    1.326,                   !- Conductivity {W/m-K}
    1400,                    !- Density {kg/m3}
    1000,                    !- Specific Heat {J/kg-K}
    0.9,                     !- Thermal Absorptance
    0.7,                     !- Solar Absorptance
    0.7;                     !- Visible Absorptance

  MATERIAL,
    gypsum board,            !- Name
    Smooth,                  !- Roughness
    0.0127,                  !- Thickness {m}
    0.16,                    !- Conductivity {W/m-K}
    800,                     !- Density {kg/m3}
    1090,                    !- Specific Heat {J/kg-K}
    0.9,                     !- Thermal Absorptance
    0.7,                     !- Solar Absorptance
    0.5;                     !- Visible Absorptance

  MATERIAL,
    Metal surface,           !- Name
    Smooth,                  !- Roughness
    0.0008,                  !- Thickness {m}
    45.28,                   !- Conductivity {W/m-K}
    7824,                    !- Density {kg/m3}
    500,                     !- Specific Heat {J/kg-K}
    0.9,                     !- Thermal Absorptance
    0.7,                     !- Solar Absorptance
    0.7;                     !- Visible Absorptance

  MATERIAL,
    Roof Surface,            !- Name
    Smooth,                  !- Roughness
    0.0008,                  !- Thickness {m}
    45.28,                   !- Conductivity {W/m-K}
    7824,                    !- Density {kg/m3}
    500,                     !- Specific Heat {J/kg-K}
    0.9,                     !- Thermal Absorptance
    0.7,                     !- Solar Absorptance
    0.7;                     !- Visible Absorptance

  MATERIAL,
    Typical Floor Insulation,!- Name
    Smooth,                  !- Roughness
    0.1693,                  !- Thickness {m}
    0.049,                   !- Conductivity {W/m-K}
    265,                     !- Density {kg/m3}
    836.8,                   !- Specific Heat {J/kg-K}
    0.9,                     !- Thermal Absorptance
    0.7,                     !- Solar Absorptance
    0.7;                     !- Visible Absorptance

  MATERIAL,
    Typical Roof Insulation, !- Name
    Smooth,                  !- Roughness
    0.40309792180345194,                    !- Thickness {m}
    0.049,                   !- Conductivity {W/m-K}
    265,                     !- Density {kg/m3}
    836.8,                   !- Specific Heat {J/kg-K}
    0.9,                     !- Thermal Absorptance
    0.7,                     !- Solar Absorptance
    0.7;                     !- Visible Absorptance

  MATERIAL,
    Typical Wall Insulation, !- Name
    Smooth,                  !- Roughness
    0.25337090524832684,                    !- Thickness {m}
    0.049,                   !- Conductivity {W/m-K}
    265,                     !- Density {kg/m3}
    836.8,                   !- Specific Heat {J/kg-K}
    0.9,                     !- Thermal Absorptance
    0.7,                     !- Solar Absorptance
    0.7;                     !- Visible Absorptance

  MATERIAL,
    Wall Mass,               !- Name
    Rough,                   !- Roughness
    0.055,                    !- Thickness {m}
    1.311,                   !- Conductivity {W/m-K}
    1400,                    !- Density {kg/m3}
    1000,                    !- Specific Heat {J/kg-K}
    0.9,                     !- Thermal Absorptance
    0.7,                     !- Solar Absorptance
    0.7;                     !- Visible Absorptance

  MATERIAL,
    DC Mass,                 !- Name
    MediumRough,             !- Roughness
    0.5,                     !- Thickness {m}
    1.326,                   !- Conductivity {W/m-K}
    1400,                    !- Density {kg/m3}
    1000,                    !- Specific Heat {J/kg-K}
    0.9,                     !- Thermal Absorptance
    0.7,                     !- Solar Absorptance
    0.7;                     !- Visible Absorptance

  MATERIAL:NOMASS,
    Nonres_Floor_Insulation, !- Name
    MediumSmooth,            !- Roughness
    2.88291975,              !- Thermal Resistance {m2-K/W}
    0.9,                     !- Thermal Absorptance
    0.7,                     !- Solar Absorptance
    0.7;                     !- Visible Absorptance

  MATERIAL:NOMASS,
    Typical Carpet Pad,      !- Name
    Smooth,                  !- Roughness
    0.216479987,             !- Thermal Resistance {m2-K/W}
    0.9,                     !- Thermal Absorptance
    0.7,                     !- Solar Absorptance
    0.8;                     !- Visible Absorptance

  MATERIAL:NOMASS,
    Interior Insulation,     !- Name
    Smooth,                  !- Roughness
    1,                       !- Thermal Resistance {m2-K/W}
    0.9,                     !- Thermal Absorptance
    0.7,                     !- Solar Absorptance
    0.7;                     !- Visible Absorptance

  WINDOWMATERIAL:SIMPLEGLAZINGSYSTEM,
    SimpleGlazing,           !- Name
    2.2,                     !- U-Factor {W/m2-K}
    0.5,                     !- Solar Heat Gain Coefficient
    0.7;                     !- Visible Transmittance

  CONSTRUCTION,
    Exterior Roof,           !- Name
    Roof Surface,            !- Outside Layer
    Typical Roof Insulation, !- Layer 2
    Wall Mass;               !- Layer 3

  CONSTRUCTION,
    Exterior Wall,           !- Name
    1IN Stucco,              !- Outside Layer
    Typical Wall Insulation, !- Layer 2
    Wall Mass,               !- Layer 3
    1/2IN Gypsum;            !- Layer 4

  CONSTRUCTION,
    Exterior Window,         !- Name
    SimpleGlazing;           !- Outside Layer

  CONSTRUCTION,
    Interior Floor,          !- Name
    Typical Carpet Pad,      !- Outside Layer
    Floor Mass,              !- Layer 2
    Typical Carpet Pad;      !- Layer 3

  CONSTRUCTION,
    Interior Wall,           !- Name
    gypsum board,            !- Outside Layer
    Interior Insulation,     !- Layer 2
    gypsum board;            !- Layer 3

  CONSTRUCTION:FFACTORGROUNDFLOOR,
    Perimeter_bot_ZN_1_Floor,!- Name
    0.73,                    !- F-Factor {W/m-K}
    207.33814098,            !- Area {m2}
    49.911;                  !- PerimeterExposed {m}

  CONSTRUCTION:FFACTORGROUNDFLOOR,
    Perimeter_bot_ZN_2_Floor,!- Name
    0.73,                    !- F-Factor {W/m-K}
    131.2621941,             !- Area {m2}
    33.2738;                 !- PerimeterExposed {m}

  CONSTRUCTION:FFACTORGROUNDFLOOR,
    Perimeter_bot_ZN_3_Floor,!- Name
    0.73,                    !- F-Factor {W/m-K}
    207.33814097999993,      !- Area {m2}
    49.911;                  !- PerimeterExposed {m}

  CONSTRUCTION:FFACTORGROUNDFLOOR,
    Perimeter_bot_ZN_4_Floor,!- Name
    0.73,                    !- F-Factor {W/m-K}
    131.25358392,            !- Area {m2}
    33.2738;                 !- PerimeterExposed {m}

  GLOBALGEOMETRYRULES,
    UpperLeftCorner,         !- Starting Vertex Position
    Counterclockwise,        !- Vertex Entry Direction
    Relative,                !- Coordinate System
    Relative,                !- Daylighting Reference Point Coordinate System
    Relative;                !- Rectangular Surface Coordinate System

  Zone,
    Core_bottom Thermal Zone,!- Name
    0,                       !- Direction of Relative North {deg}
    0,                       !- X Origin {m}
    0,                       !- Y Origin {m}
    0,                       !- Z Origin {m}
    ,                        !- Type
    1,                       !- Multiplier
    ,                        !- Ceiling Height {m}
    ,                        !- Volume {m3}
    ,                        !- Floor Area {m2}
    ,                        !- Zone Inside Convection Algorithm
    ,                        !- Zone Outside Convection Algorithm
    Yes;                     !- Part of Total Floor Area

  Zone,
    Core_mid Thermal Zone,   !- Name
    0,                       !- Direction of Relative North {deg}
    0,                       !- X Origin {m}
    0,                       !- Y Origin {m}
    0,                       !- Z Origin {m}
    ,                        !- Type
    1,                       !- Multiplier
    ,                        !- Ceiling Height {m}
    ,                        !- Volume {m3}
    ,                        !- Floor Area {m2}
    ,                        !- Zone Inside Convection Algorithm
    ,                        !- Zone Outside Convection Algorithm
    Yes;                     !- Part of Total Floor Area

  Zone,
    Core_top Thermal Zone,   !- Name
    0,                       !- Direction of Relative North {deg}
    0,                       !- X Origin {m}
    0,                       !- Y Origin {m}
    0,                       !- Z Origin {m}
    ,                        !- Type
    1,                       !- Multiplier
    ,                        !- Ceiling Height {m}
    ,                        !- Volume {m3}
    ,                        !- Floor Area {m2}
    ,                        !- Zone Inside Convection Algorithm
    ,                        !- Zone Outside Convection Algorithm
    Yes;                     !- Part of Total Floor Area

  Zone,
    Perimeter_bot_ZN_1 Thermal Zone,  !- Name
    0,                       !- Direction of Relative North {deg}
    0,                       !- X Origin {m}
    0,                       !- Y Origin {m}
    0,                       !- Z Origin {m}
    ,                        !- Type
    1,                       !- Multiplier
    ,                        !- Ceiling Height {m}
    ,                        !- Volume {m3}
    ,                        !- Floor Area {m2}
    ,                        !- Zone Inside Convection Algorithm
    ,                        !- Zone Outside Convection Algorithm
    Yes;                     !- Part of Total Floor Area

  Zone,
    Perimeter_bot_ZN_2 Thermal Zone,  !- Name
    0,                       !- Direction of Relative North {deg}
    0,                       !- X Origin {m}
    0,                       !- Y Origin {m}
    0,                       !- Z Origin {m}
    ,                        !- Type
    1,                       !- Multiplier
    ,                        !- Ceiling Height {m}
    ,                        !- Volume {m3}
    ,                        !- Floor Area {m2}
    ,                        !- Zone Inside Convection Algorithm
    ,                        !- Zone Outside Convection Algorithm
    Yes;                     !- Part of Total Floor Area

  Zone,
    Perimeter_bot_ZN_3 Thermal Zone,  !- Name
    0,                       !- Direction of Relative North {deg}
    0,                       !- X Origin {m}
    0,                       !- Y Origin {m}
    0,                       !- Z Origin {m}
    ,                        !- Type
    1,                       !- Multiplier
    ,                        !- Ceiling Height {m}
    ,                        !- Volume {m3}
    ,                        !- Floor Area {m2}
    ,                        !- Zone Inside Convection Algorithm
    ,                        !- Zone Outside Convection Algorithm
    Yes;                     !- Part of Total Floor Area

  Zone,
    Perimeter_bot_ZN_4 Thermal Zone,  !- Name
    0,                       !- Direction of Relative North {deg}
    0,                       !- X Origin {m}
    0,                       !- Y Origin {m}
    0,                       !- Z Origin {m}
    ,                        !- Type
    1,                       !- Multiplier
    ,                        !- Ceiling Height {m}
    ,                        !- Volume {m3}
    ,                        !- Floor Area {m2}
    ,                        !- Zone Inside Convection Algorithm
    ,                        !- Zone Outside Convection Algorithm
    Yes;                     !- Part of Total Floor Area

  Zone,
    Perimeter_mid_ZN_1 Thermal Zone,  !- Name
    0,                       !- Direction of Relative North {deg}
    0,                       !- X Origin {m}
    0,                       !- Y Origin {m}
    0,                       !- Z Origin {m}
    ,                        !- Type
    1,                       !- Multiplier
    ,                        !- Ceiling Height {m}
    ,                        !- Volume {m3}
    ,                        !- Floor Area {m2}
    ,                        !- Zone Inside Convection Algorithm
    ,                        !- Zone Outside Convection Algorithm
    Yes;                     !- Part of Total Floor Area

  Zone,
    Perimeter_mid_ZN_2 Thermal Zone,  !- Name
    0,                       !- Direction of Relative North {deg}
    0,                       !- X Origin {m}
    0,                       !- Y Origin {m}
    0,                       !- Z Origin {m}
    ,                        !- Type
    1,                       !- Multiplier
    ,                        !- Ceiling Height {m}
    ,                        !- Volume {m3}
    ,                        !- Floor Area {m2}
    ,                        !- Zone Inside Convection Algorithm
    ,                        !- Zone Outside Convection Algorithm
    Yes;                     !- Part of Total Floor Area

  Zone,
    Perimeter_mid_ZN_3 Thermal Zone,  !- Name
    0,                       !- Direction of Relative North {deg}
    0,                       !- X Origin {m}
    0,                       !- Y Origin {m}
    0,                       !- Z Origin {m}
    ,                        !- Type
    1,                       !- Multiplier
    ,                        !- Ceiling Height {m}
    ,                        !- Volume {m3}
    ,                        !- Floor Area {m2}
    ,                        !- Zone Inside Convection Algorithm
    ,                        !- Zone Outside Convection Algorithm
    Yes;                     !- Part of Total Floor Area

  Zone,
    Perimeter_mid_ZN_4 Thermal Zone,  !- Name
    0,                       !- Direction of Relative North {deg}
    0,                       !- X Origin {m}
    0,                       !- Y Origin {m}
    0,                       !- Z Origin {m}
    ,                        !- Type
    1,                       !- Multiplier
    ,                        !- Ceiling Height {m}
    ,                        !- Volume {m3}
    ,                        !- Floor Area {m2}
    ,                        !- Zone Inside Convection Algorithm
    ,                        !- Zone Outside Convection Algorithm
    Yes;                     !- Part of Total Floor Area

  Zone,
    Perimeter_top_ZN_1 Thermal Zone,  !- Name
    0,                       !- Direction of Relative North {deg}
    0,                       !- X Origin {m}
    0,                       !- Y Origin {m}
    0,                       !- Z Origin {m}
    ,                        !- Type
    1,                       !- Multiplier
    ,                        !- Ceiling Height {m}
    ,                        !- Volume {m3}
    ,                        !- Floor Area {m2}
    ,                        !- Zone Inside Convection Algorithm
    ,                        !- Zone Outside Convection Algorithm
    Yes;                     !- Part of Total Floor Area

  Zone,
    Perimeter_top_ZN_2 Thermal Zone,  !- Name
    0,                       !- Direction of Relative North {deg}
    0,                       !- X Origin {m}
    0,                       !- Y Origin {m}
    0,                       !- Z Origin {m}
    ,                        !- Type
    1,                       !- Multiplier
    ,                        !- Ceiling Height {m}
    ,                        !- Volume {m3}
    ,                        !- Floor Area {m2}
    ,                        !- Zone Inside Convection Algorithm
    ,                        !- Zone Outside Convection Algorithm
    Yes;                     !- Part of Total Floor Area

  Zone,
    Perimeter_top_ZN_3 Thermal Zone,  !- Name
    0,                       !- Direction of Relative North {deg}
    0,                       !- X Origin {m}
    0,                       !- Y Origin {m}
    0,                       !- Z Origin {m}
    ,                        !- Type
    1,                       !- Multiplier
    ,                        !- Ceiling Height {m}
    ,                        !- Volume {m3}
    ,                        !- Floor Area {m2}
    ,                        !- Zone Inside Convection Algorithm
    ,                        !- Zone Outside Convection Algorithm
    Yes;                     !- Part of Total Floor Area

  Zone,
    Perimeter_top_ZN_4 Thermal Zone,  !- Name
    0,                       !- Direction of Relative North {deg}
    0,                       !- X Origin {m}
    0,                       !- Y Origin {m}
    0,                       !- Z Origin {m}
    ,                        !- Type
    1,                       !- Multiplier
    ,                        !- Ceiling Height {m}
    ,                        !- Volume {m3}
    ,                        !- Floor Area {m2}
    ,                        !- Zone Inside Convection Algorithm
    ,                        !- Zone Outside Convection Algorithm
    Yes;                     !- Part of Total Floor Area

  ZoneList,
    1 Story Zones,           !- Name
    Perimeter_bot_ZN_1 Thermal Zone,  !- Zone 1 Name
    Perimeter_bot_ZN_2 Thermal Zone,  !- Zone 2 Name
    Perimeter_bot_ZN_3 Thermal Zone,  !- Zone 3 Name
    Perimeter_bot_ZN_4 Thermal Zone,  !- Zone 4 Name
    Core_bottom Thermal Zone;!- Zone 5 Name

  ZoneList,
    Office WholeBuilding - Md Office,  !- Name
    Core_bottom Thermal Zone,!- Zone 1 Name
    Core_mid Thermal Zone,   !- Zone 2 Name
    Core_top Thermal Zone,   !- Zone 3 Name
    Perimeter_bot_ZN_1 Thermal Zone,  !- Zone 4 Name
    Perimeter_bot_ZN_2 Thermal Zone,  !- Zone 5 Name
    Perimeter_bot_ZN_3 Thermal Zone,  !- Zone 6 Name
    Perimeter_bot_ZN_4 Thermal Zone,  !- Zone 7 Name
    Perimeter_mid_ZN_1 Thermal Zone,  !- Zone 8 Name
    Perimeter_mid_ZN_2 Thermal Zone,  !- Zone 9 Name
    Perimeter_mid_ZN_3 Thermal Zone,  !- Zone 10 Name
    Perimeter_mid_ZN_4 Thermal Zone,  !- Zone 11 Name
    Perimeter_top_ZN_1 Thermal Zone,  !- Zone 12 Name
    Perimeter_top_ZN_2 Thermal Zone,  !- Zone 13 Name
    Perimeter_top_ZN_3 Thermal Zone,  !- Zone 14 Name
    Perimeter_top_ZN_4 Thermal Zone;  !- Zone 15 Name

  ZoneList,
    All Zones,               !- Name
    Core_bottom Thermal Zone,!- Zone 1 Name
    Core_mid Thermal Zone,   !- Zone 2 Name
    Core_top Thermal Zone,   !- Zone 3 Name
    Perimeter_bot_ZN_1 Thermal Zone,  !- Zone 4 Name
    Perimeter_bot_ZN_2 Thermal Zone,  !- Zone 5 Name
    Perimeter_bot_ZN_3 Thermal Zone,  !- Zone 6 Name
    Perimeter_bot_ZN_4 Thermal Zone,  !- Zone 7 Name
    Perimeter_mid_ZN_1 Thermal Zone,  !- Zone 8 Name
    Perimeter_mid_ZN_2 Thermal Zone,  !- Zone 9 Name
    Perimeter_mid_ZN_3 Thermal Zone,  !- Zone 10 Name
    Perimeter_mid_ZN_4 Thermal Zone,  !- Zone 11 Name
    Perimeter_top_ZN_1 Thermal Zone,  !- Zone 12 Name
    Perimeter_top_ZN_2 Thermal Zone,  !- Zone 13 Name
    Perimeter_top_ZN_3 Thermal Zone,  !- Zone 14 Name
    Perimeter_top_ZN_4 Thermal Zone;  !- Zone 15 Name

  ZoneList,
    Perimeter Zones,         !- Name
    Perimeter_top_ZN_4 Thermal Zone,  !- Zone 1 Name
    Perimeter_top_ZN_3 Thermal Zone,  !- Zone 2 Name
    Perimeter_top_ZN_2 Thermal Zone,  !- Zone 3 Name
    Perimeter_bot_ZN_1 Thermal Zone,  !- Zone 4 Name
    Perimeter_bot_ZN_2 Thermal Zone,  !- Zone 5 Name
    Perimeter_bot_ZN_3 Thermal Zone,  !- Zone 6 Name
    Perimeter_bot_ZN_4 Thermal Zone,  !- Zone 7 Name
    Perimeter_mid_ZN_1 Thermal Zone,  !- Zone 8 Name
    Perimeter_mid_ZN_2 Thermal Zone,  !- Zone 9 Name
    Perimeter_mid_ZN_3 Thermal Zone,  !- Zone 10 Name
    Perimeter_mid_ZN_4 Thermal Zone,  !- Zone 11 Name
    Perimeter_top_ZN_1 Thermal Zone;  !- Zone 12 Name

  BuildingSurface:Detailed,
    Core_bottom_ceiling,     !- Name
    Ceiling,                 !- Surface Type
    Interior Floor,          !- Construction Name
    Core_bottom Thermal Zone,!- Zone Name
    ,                        !- Space Name
    Surface,                 !- Outside Boundary Condition
    Core_mid_ZN_5_Floor,     !- Outside Boundary Condition Object
    NoSun,                   !- Sun Exposure
    NoWind,                  !- Wind Exposure
    ,                        !- View Factor to Ground
    ,                        !- Number of Vertices
    45.3375,4.5732,3.9624,  !- X,Y,Z ==> Vertex 1 {m}
    45.3375,28.7006,3.9624,  !- X,Y,Z ==> Vertex 2 {m}
    4.5732,28.7006,3.9624,  !- X,Y,Z ==> Vertex 3 {m}
    4.5732,4.5732,3.9624;  !- X,Y,Z ==> Vertex 4 {m}

  BuildingSurface:Detailed,
    Core_bot_ZN_5_Floor,     !- Name
    Floor,                   !- Surface Type
    Interior Floor,          !- Construction Name
    Core_bottom Thermal Zone,!- Zone Name
    ,                        !- Space Name
    Adiabatic,               !- Outside Boundary Condition
    ,                        !- Outside Boundary Condition Object
    NoSun,                   !- Sun Exposure
    NoWind,                  !- Wind Exposure
    ,                        !- View Factor to Ground
    ,                        !- Number of Vertices
    45.3375,28.7006,0,  !- X,Y,Z ==> Vertex 1 {m}
    45.3375,4.5732,0,  !- X,Y,Z ==> Vertex 2 {m}
    4.5732,4.5732,0,  !- X,Y,Z ==> Vertex 3 {m}
    4.5732,28.7006,0;  !- X,Y,Z ==> Vertex 4 {m}

  BuildingSurface:Detailed,
    Core_bot_ZN_5_Wall_East, !- Name
    Wall,                    !- Surface Type
    Interior Wall,           !- Construction Name
    Core_bottom Thermal Zone,!- Zone Name
    ,                        !- Space Name
    Surface,                 !- Outside Boundary Condition
    Perimeter_bot_ZN_2_Wall_West,  !- Outside Boundary Condition Object
    NoSun,                   !- Sun Exposure
    NoWind,                  !- Wind Exposure
    ,                        !- View Factor to Ground
    ,                        !- Number of Vertices
    45.3375,4.5732,3.9624,  !- X,Y,Z ==> Vertex 1 {m}
    45.3375,4.5732,0,  !- X,Y,Z ==> Vertex 2 {m}
    45.3375,28.7006,0,  !- X,Y,Z ==> Vertex 3 {m}
    45.3375,28.7006,3.9624;  !- X,Y,Z ==> Vertex 4 {m}

  BuildingSurface:Detailed,
    Core_bot_ZN_5_Wall_North,!- Name
    Wall,                    !- Surface Type
    Interior Wall,           !- Construction Name
    Core_bottom Thermal Zone,!- Zone Name
    ,                        !- Space Name
    Surface,                 !- Outside Boundary Condition
    Perimeter_bot_ZN_3_Wall_South,  !- Outside Boundary Condition Object
    NoSun,                   !- Sun Exposure
    NoWind,                  !- Wind Exposure
    ,                        !- View Factor to Ground
    ,                        !- Number of Vertices
    45.3375,28.7006,3.9624,  !- X,Y,Z ==> Vertex 1 {m}
    45.3375,28.7006,0,  !- X,Y,Z ==> Vertex 2 {m}
    4.5732,28.7006,0,  !- X,Y,Z ==> Vertex 3 {m}
    4.5732,28.7006,3.9624;  !- X,Y,Z ==> Vertex 4 {m}

  BuildingSurface:Detailed,
    Core_bot_ZN_5_Wall_South,!- Name
    Wall,                    !- Surface Type
    Interior Wall,           !- Construction Name
    Core_bottom Thermal Zone,!- Zone Name
    ,                        !- Space Name
    Surface,                 !- Outside Boundary Condition
    Perimeter_bot_ZN_1_Wall_North,  !- Outside Boundary Condition Object
    NoSun,                   !- Sun Exposure
    NoWind,                  !- Wind Exposure
    ,                        !- View Factor to Ground
    ,                        !- Number of Vertices
    4.5732,4.5732,3.9624,  !- X,Y,Z ==> Vertex 1 {m}
    4.5732,4.5732,0,  !- X,Y,Z ==> Vertex 2 {m}
    45.3375,4.5732,0,  !- X,Y,Z ==> Vertex 3 {m}
    45.3375,4.5732,3.9624;  !- X,Y,Z ==> Vertex 4 {m}

  BuildingSurface:Detailed,
    Core_bot_ZN_5_Wall_West, !- Name
    Wall,                    !- Surface Type
    Interior Wall,           !- Construction Name
    Core_bottom Thermal Zone,!- Zone Name
    ,                        !- Space Name
    Surface,                 !- Outside Boundary Condition
    Perimeter_bot_ZN_4_Wall_East,  !- Outside Boundary Condition Object
    NoSun,                   !- Sun Exposure
    NoWind,                  !- Wind Exposure
    ,                        !- View Factor to Ground
    ,                        !- Number of Vertices
    4.5732,28.7006,3.9624,  !- X,Y,Z ==> Vertex 1 {m}
    4.5732,28.7006,0,  !- X,Y,Z ==> Vertex 2 {m}
    4.5732,4.5732,0,  !- X,Y,Z ==> Vertex 3 {m}
    4.5732,4.5732,3.9624;  !- X,Y,Z ==> Vertex 4 {m}

  BuildingSurface:Detailed,
    Core_mid_ceiling,        !- Name
    Ceiling,                 !- Surface Type
    Interior Floor,          !- Construction Name
    Core_mid Thermal Zone,   !- Zone Name
    ,                        !- Space Name
    Surface,                 !- Outside Boundary Condition
    Core_top_ZN_5_Floor,     !- Outside Boundary Condition Object
    NoSun,                   !- Sun Exposure
    NoWind,                  !- Wind Exposure
    ,                        !- View Factor to Ground
    ,                        !- Number of Vertices
    45.3375,4.5732,7.9248,  !- X,Y,Z ==> Vertex 1 {m}
    45.3375,28.7006,7.9248,  !- X,Y,Z ==> Vertex 2 {m}
    4.5732,28.7006,7.9248,  !- X,Y,Z ==> Vertex 3 {m}
    4.5732,4.5732,7.9248;  !- X,Y,Z ==> Vertex 4 {m}

  BuildingSurface:Detailed,
    Core_mid_ZN_5_Floor,     !- Name
    Floor,                   !- Surface Type
    Interior Floor,          !- Construction Name
    Core_mid Thermal Zone,   !- Zone Name
    ,                        !- Space Name
    Surface,                 !- Outside Boundary Condition
    Core_bottom_ceiling,     !- Outside Boundary Condition Object
    NoSun,                   !- Sun Exposure
    NoWind,                  !- Wind Exposure
    ,                        !- View Factor to Ground
    ,                        !- Number of Vertices
    45.3375,28.7006,3.9624,  !- X,Y,Z ==> Vertex 1 {m}
    45.3375,4.5732,3.9624,  !- X,Y,Z ==> Vertex 2 {m}
    4.5732,4.5732,3.9624,  !- X,Y,Z ==> Vertex 3 {m}
    4.5732,28.7006,3.9624;  !- X,Y,Z ==> Vertex 4 {m}

  BuildingSurface:Detailed,
    Core_mid_ZN_5_Wall_East, !- Name
    Wall,                    !- Surface Type
    Interior Wall,           !- Construction Name
    Core_mid Thermal Zone,   !- Zone Name
    ,                        !- Space Name
    Surface,                 !- Outside Boundary Condition
    Perimeter_mid_ZN_2_Wall_West,  !- Outside Boundary Condition Object
    NoSun,                   !- Sun Exposure
    NoWind,                  !- Wind Exposure
    ,                        !- View Factor to Ground
    ,                        !- Number of Vertices
    45.3375,4.5732,7.9248,  !- X,Y,Z ==> Vertex 1 {m}
    45.3375,4.5732,3.9624,  !- X,Y,Z ==> Vertex 2 {m}
    45.3375,28.7006,3.9624,  !- X,Y,Z ==> Vertex 3 {m}
    45.3375,28.7006,7.9248;  !- X,Y,Z ==> Vertex 4 {m}

  BuildingSurface:Detailed,
    Core_mid_ZN_5_Wall_North,!- Name
    Wall,                    !- Surface Type
    Interior Wall,           !- Construction Name
    Core_mid Thermal Zone,   !- Zone Name
    ,                        !- Space Name
    Surface,                 !- Outside Boundary Condition
    Perimeter_mid_ZN_3_Wall_South,  !- Outside Boundary Condition Object
    NoSun,                   !- Sun Exposure
    NoWind,                  !- Wind Exposure
    ,                        !- View Factor to Ground
    ,                        !- Number of Vertices
    45.3375,28.7006,7.9248,  !- X,Y,Z ==> Vertex 1 {m}
    45.3375,28.7006,3.9624,  !- X,Y,Z ==> Vertex 2 {m}
    4.5732,28.7006,3.9624,  !- X,Y,Z ==> Vertex 3 {m}
    4.5732,28.7006,7.9248;  !- X,Y,Z ==> Vertex 4 {m}

  BuildingSurface:Detailed,
    Core_mid_ZN_5_Wall_South,!- Name
    Wall,                    !- Surface Type
    Interior Wall,           !- Construction Name
    Core_mid Thermal Zone,   !- Zone Name
    ,                        !- Space Name
    Surface,                 !- Outside Boundary Condition
    Perimeter_mid_ZN_1_Wall_North,  !- Outside Boundary Condition Object
    NoSun,                   !- Sun Exposure
    NoWind,                  !- Wind Exposure
    ,                        !- View Factor to Ground
    ,                        !- Number of Vertices
    4.5732,4.5732,7.9248,  !- X,Y,Z ==> Vertex 1 {m}
    4.5732,4.5732,3.9624,  !- X,Y,Z ==> Vertex 2 {m}
    45.3375,4.5732,3.9624,  !- X,Y,Z ==> Vertex 3 {m}
    45.3375,4.5732,7.9248;  !- X,Y,Z ==> Vertex 4 {m}

  BuildingSurface:Detailed,
    Core_mid_ZN_5_Wall_West, !- Name
    Wall,                    !- Surface Type
    Interior Wall,           !- Construction Name
    Core_mid Thermal Zone,   !- Zone Name
    ,                        !- Space Name
    Surface,                 !- Outside Boundary Condition
    Perimeter_mid_ZN_4_Wall_East,  !- Outside Boundary Condition Object
    NoSun,                   !- Sun Exposure
    NoWind,                  !- Wind Exposure
    ,                        !- View Factor to Ground
    ,                        !- Number of Vertices
    4.5732,28.7006,7.9248,  !- X,Y,Z ==> Vertex 1 {m}
    4.5732,28.7006,3.9624,  !- X,Y,Z ==> Vertex 2 {m}
    4.5732,4.5732,3.9624,  !- X,Y,Z ==> Vertex 3 {m}
    4.5732,4.5732,7.9248;  !- X,Y,Z ==> Vertex 4 {m}

  BuildingSurface:Detailed,
    Core_top_ZN_5_Ceiling,   !- Name
    Roof,                    !- Surface Type
    Exterior Roof,           !- Construction Name
    Core_top Thermal Zone,   !- Zone Name
    ,                        !- Space Name
    Outdoors,                !- Outside Boundary Condition
    ,                        !- Outside Boundary Condition Object
    SunExposed,              !- Sun Exposure
    WindExposed,             !- Wind Exposure
    ,                        !- View Factor to Ground
    ,                        !- Number of Vertices
    45.3375,4.5732,11.8872,  !- X,Y,Z ==> Vertex 1 {m}
    45.3375,28.7006,11.8872,  !- X,Y,Z ==> Vertex 2 {m}
    4.5732,28.7006,11.8872,  !- X,Y,Z ==> Vertex 3 {m}
    4.5732,4.5732,11.8872;  !- X,Y,Z ==> Vertex 4 {m}

  BuildingSurface:Detailed,
    Core_top_ZN_5_Floor,     !- Name
    Floor,                   !- Surface Type
    Interior Floor,          !- Construction Name
    Core_top Thermal Zone,   !- Zone Name
    ,                        !- Space Name
    Surface,                 !- Outside Boundary Condition
    Core_mid_ceiling,        !- Outside Boundary Condition Object
    NoSun,                   !- Sun Exposure
    NoWind,                  !- Wind Exposure
    ,                        !- View Factor to Ground
    ,                        !- Number of Vertices
    45.3375,28.7006,7.9248,  !- X,Y,Z ==> Vertex 1 {m}
    45.3375,4.5732,7.9248,  !- X,Y,Z ==> Vertex 2 {m}
    4.5732,4.5732,7.9248,  !- X,Y,Z ==> Vertex 3 {m}
    4.5732,28.7006,7.9248;  !- X,Y,Z ==> Vertex 4 {m}

  BuildingSurface:Detailed,
    Core_top_ZN_5_Wall_East, !- Name
    Wall,                    !- Surface Type
    Interior Wall,           !- Construction Name
    Core_top Thermal Zone,   !- Zone Name
    ,                        !- Space Name
    Surface,                 !- Outside Boundary Condition
    Perimeter_top_ZN_2_Wall_West,  !- Outside Boundary Condition Object
    NoSun,                   !- Sun Exposure
    NoWind,                  !- Wind Exposure
    ,                        !- View Factor to Ground
    ,                        !- Number of Vertices
    45.3375,4.5732,11.8872,  !- X,Y,Z ==> Vertex 1 {m}
    45.3375,4.5732,7.9248,  !- X,Y,Z ==> Vertex 2 {m}
    45.3375,28.7006,7.9248,  !- X,Y,Z ==> Vertex 3 {m}
    45.3375,28.7006,11.8872;  !- X,Y,Z ==> Vertex 4 {m}

  BuildingSurface:Detailed,
    Core_top_ZN_5_Wall_North,!- Name
    Wall,                    !- Surface Type
    Interior Wall,           !- Construction Name
    Core_top Thermal Zone,   !- Zone Name
    ,                        !- Space Name
    Surface,                 !- Outside Boundary Condition
    Perimeter_top_ZN_3_Wall_South,  !- Outside Boundary Condition Object
    NoSun,                   !- Sun Exposure
    NoWind,                  !- Wind Exposure
    ,                        !- View Factor to Ground
    ,                        !- Number of Vertices
    45.3375,28.7006,11.8872,  !- X,Y,Z ==> Vertex 1 {m}
    45.3375,28.7006,7.9248,  !- X,Y,Z ==> Vertex 2 {m}
    4.5732,28.7006,7.9248,  !- X,Y,Z ==> Vertex 3 {m}
    4.5732,28.7006,11.8872;  !- X,Y,Z ==> Vertex 4 {m}

  BuildingSurface:Detailed,
    Core_top_ZN_5_Wall_South,!- Name
    Wall,                    !- Surface Type
    Interior Wall,           !- Construction Name
    Core_top Thermal Zone,   !- Zone Name
    ,                        !- Space Name
    Surface,                 !- Outside Boundary Condition
    Perimeter_top_ZN_1_Wall_North,  !- Outside Boundary Condition Object
    NoSun,                   !- Sun Exposure
    NoWind,                  !- Wind Exposure
    ,                        !- View Factor to Ground
    ,                        !- Number of Vertices
    4.5732,4.5732,11.8872,  !- X,Y,Z ==> Vertex 1 {m}
    4.5732,4.5732,7.9248,  !- X,Y,Z ==> Vertex 2 {m}
    45.3375,4.5732,7.9248,  !- X,Y,Z ==> Vertex 3 {m}
    45.3375,4.5732,11.8872;  !- X,Y,Z ==> Vertex 4 {m}

  BuildingSurface:Detailed,
    Core_top_ZN_5_Wall_West, !- Name
    Wall,                    !- Surface Type
    Interior Wall,           !- Construction Name
    Core_top Thermal Zone,   !- Zone Name
    ,                        !- Space Name
    Surface,                 !- Outside Boundary Condition
    Perimeter_top_ZN_4_Wall_East,  !- Outside Boundary Condition Object
    NoSun,                   !- Sun Exposure
    NoWind,                  !- Wind Exposure
    ,                        !- View Factor to Ground
    ,                        !- Number of Vertices
    4.5732,28.7006,11.8872,  !- X,Y,Z ==> Vertex 1 {m}
    4.5732,28.7006,7.9248,  !- X,Y,Z ==> Vertex 2 {m}
    4.5732,4.5732,7.9248,  !- X,Y,Z ==> Vertex 3 {m}
    4.5732,4.5732,11.8872;  !- X,Y,Z ==> Vertex 4 {m}

  BuildingSurface:Detailed,
    Perimeter_bot_ZN_1_Ceiling,  !- Name
    Ceiling,                 !- Surface Type
    Interior Floor,          !- Construction Name
    Perimeter_bot_ZN_1 Thermal Zone,  !- Zone Name
    ,                        !- Space Name
    Surface,                 !- Outside Boundary Condition
    Perimeter_mid_ZN_1_Floor,!- Outside Boundary Condition Object
    NoSun,                   !- Sun Exposure
    NoWind,                  !- Wind Exposure
    ,                        !- View Factor to Ground
    ,                        !- Number of Vertices
    49.911,0,3.9624,  !- X,Y,Z ==> Vertex 1 {m}
    45.3375,4.5732,3.9624,  !- X,Y,Z ==> Vertex 2 {m}
    4.5732,4.5732,3.9624,  !- X,Y,Z ==> Vertex 3 {m}
    0,0,3.9624;  !- X,Y,Z ==> Vertex 4 {m}

  BuildingSurface:Detailed,
    Perimeter_bot_ZN_1_Floor,!- Name
    Floor,                   !- Surface Type
    Perimeter_bot_ZN_1_Floor,!- Construction Name
    Perimeter_bot_ZN_1 Thermal Zone,  !- Zone Name
    ,                        !- Space Name
    GroundFCfactorMethod,    !- Outside Boundary Condition
    ,                        !- Outside Boundary Condition Object
    NoSun,                   !- Sun Exposure
    NoWind,                  !- Wind Exposure
    ,                        !- View Factor to Ground
    ,                        !- Number of Vertices
    45.3375,4.5732,0,  !- X,Y,Z ==> Vertex 1 {m}
    49.911,0,0,  !- X,Y,Z ==> Vertex 2 {m}
    0,0,0,  !- X,Y,Z ==> Vertex 3 {m}
    4.5732,4.5732,0;  !- X,Y,Z ==> Vertex 4 {m}

  BuildingSurface:Detailed,
    Perimeter_bot_ZN_1_Wall_East,  !- Name
    Wall,                    !- Surface Type
    Interior Wall,           !- Construction Name
    Perimeter_bot_ZN_1 Thermal Zone,  !- Zone Name
    ,                        !- Space Name
    Surface,                 !- Outside Boundary Condition
    Perimeter_bot_ZN_2_Wall_South,  !- Outside Boundary Condition Object
    NoSun,                   !- Sun Exposure
    NoWind,                  !- Wind Exposure
    ,                        !- View Factor to Ground
    ,                        !- Number of Vertices
    49.911,0,3.9624,  !- X,Y,Z ==> Vertex 1 {m}
    49.911,0,0,  !- X,Y,Z ==> Vertex 2 {m}
    45.3375,4.5732,0,  !- X,Y,Z ==> Vertex 3 {m}
    45.3375,4.5732,3.9624;  !- X,Y,Z ==> Vertex 4 {m}

  BuildingSurface:Detailed,
    Perimeter_bot_ZN_1_Wall_North,  !- Name
    Wall,                    !- Surface Type
    Interior Wall,           !- Construction Name
    Perimeter_bot_ZN_1 Thermal Zone,  !- Zone Name
    ,                        !- Space Name
    Surface,                 !- Outside Boundary Condition
    Core_bot_ZN_5_Wall_South,!- Outside Boundary Condition Object
    NoSun,                   !- Sun Exposure
    NoWind,                  !- Wind Exposure
    ,                        !- View Factor to Ground
    ,                        !- Number of Vertices
    45.3375,4.5732,3.9624,  !- X,Y,Z ==> Vertex 1 {m}
    45.3375,4.5732,0,  !- X,Y,Z ==> Vertex 2 {m}
    4.5732,4.5732,0,  !- X,Y,Z ==> Vertex 3 {m}
    4.5732,4.5732,3.9624;  !- X,Y,Z ==> Vertex 4 {m}

  BuildingSurface:Detailed,
    Perimeter_bot_ZN_1_Wall_South,  !- Name
    Wall,                    !- Surface Type
    Exterior Wall,           !- Construction Name
    Perimeter_bot_ZN_1 Thermal Zone,  !- Zone Name
    ,                        !- Space Name
    Outdoors,                !- Outside Boundary Condition
    ,                        !- Outside Boundary Condition Object
    SunExposed,              !- Sun Exposure
    WindExposed,             !- Wind Exposure
    ,                        !- View Factor to Ground
    ,                        !- Number of Vertices
    0,0,3.9624,  !- X,Y,Z ==> Vertex 1 {m}
    0,0,0,  !- X,Y,Z ==> Vertex 2 {m}
    49.911,0,0,  !- X,Y,Z ==> Vertex 3 {m}
    49.911,0,3.9624;  !- X,Y,Z ==> Vertex 4 {m}

  BuildingSurface:Detailed,
    Perimeter_bot_ZN_1_Wall_West,  !- Name
    Wall,                    !- Surface Type
    Interior Wall,           !- Construction Name
    Perimeter_bot_ZN_1 Thermal Zone,  !- Zone Name
    ,                        !- Space Name
    Surface,                 !- Outside Boundary Condition
    Perimeter_bot_ZN_4_Wall_South,  !- Outside Boundary Condition Object
    NoSun,                   !- Sun Exposure
    NoWind,                  !- Wind Exposure
    ,                        !- View Factor to Ground
    ,                        !- Number of Vertices
    4.5732,4.5732,3.9624,  !- X,Y,Z ==> Vertex 1 {m}
    4.5732,4.5732,0,  !- X,Y,Z ==> Vertex 2 {m}
    0,0,0,  !- X,Y,Z ==> Vertex 3 {m}
    0,0,3.9624;  !- X,Y,Z ==> Vertex 4 {m}

  BuildingSurface:Detailed,
    Perimeter_bot_ZN_2_Ceiling,  !- Name
    Ceiling,                 !- Surface Type
    Interior Floor,          !- Construction Name
    Perimeter_bot_ZN_2 Thermal Zone,  !- Zone Name
    ,                        !- Space Name
    Surface,                 !- Outside Boundary Condition
    Perimeter_mid_ZN_2_Floor,!- Outside Boundary Condition Object
    NoSun,                   !- Sun Exposure
    NoWind,                  !- Wind Exposure
    ,                        !- View Factor to Ground
    ,                        !- Number of Vertices
    49.911,0,3.9624,  !- X,Y,Z ==> Vertex 1 {m}
    49.911,33.2738,3.9624,  !- X,Y,Z ==> Vertex 2 {m}
    45.3375,28.7006,3.9624,  !- X,Y,Z ==> Vertex 3 {m}
    45.3375,4.5732,3.9624;  !- X,Y,Z ==> Vertex 4 {m}

  BuildingSurface:Detailed,
    Perimeter_bot_ZN_2_Floor,!- Name
    Floor,                   !- Surface Type
    Perimeter_bot_ZN_2_Floor,!- Construction Name
    Perimeter_bot_ZN_2 Thermal Zone,  !- Zone Name
    ,                        !- Space Name
    GroundFCfactorMethod,    !- Outside Boundary Condition
    ,                        !- Outside Boundary Condition Object
    NoSun,                   !- Sun Exposure
    NoWind,                  !- Wind Exposure
    ,                        !- View Factor to Ground
    ,                        !- Number of Vertices
    49.911,33.2738,0,  !- X,Y,Z ==> Vertex 1 {m}
    49.911,0,0,  !- X,Y,Z ==> Vertex 2 {m}
    45.3375,4.5732,0,  !- X,Y,Z ==> Vertex 3 {m}
    45.3375,28.7006,0;  !- X,Y,Z ==> Vertex 4 {m}

  BuildingSurface:Detailed,
    Perimeter_bot_ZN_2_Wall_East,  !- Name
    Wall,                    !- Surface Type
    Exterior Wall,           !- Construction Name
    Perimeter_bot_ZN_2 Thermal Zone,  !- Zone Name
    ,                        !- Space Name
    Outdoors,                !- Outside Boundary Condition
    ,                        !- Outside Boundary Condition Object
    SunExposed,              !- Sun Exposure
    WindExposed,             !- Wind Exposure
    ,                        !- View Factor to Ground
    ,                        !- Number of Vertices
    49.911,0,3.9624,  !- X,Y,Z ==> Vertex 1 {m}
    49.911,0,0,  !- X,Y,Z ==> Vertex 2 {m}
    49.911,33.2738,0,  !- X,Y,Z ==> Vertex 3 {m}
    49.911,33.2738,3.9624;  !- X,Y,Z ==> Vertex 4 {m}

  BuildingSurface:Detailed,
    Perimeter_bot_ZN_2_Wall_North,  !- Name
    Wall,                    !- Surface Type
    Interior Wall,           !- Construction Name
    Perimeter_bot_ZN_2 Thermal Zone,  !- Zone Name
    ,                        !- Space Name
    Surface,                 !- Outside Boundary Condition
    Perimeter_bot_ZN_3_Wall_East,  !- Outside Boundary Condition Object
    NoSun,                   !- Sun Exposure
    NoWind,                  !- Wind Exposure
    ,                        !- View Factor to Ground
    ,                        !- Number of Vertices
    49.911,33.2738,3.9624,  !- X,Y,Z ==> Vertex 1 {m}
    49.911,33.2738,0,  !- X,Y,Z ==> Vertex 2 {m}
    45.3375,28.7006,0,  !- X,Y,Z ==> Vertex 3 {m}
    45.3375,28.7006,3.9624;  !- X,Y,Z ==> Vertex 4 {m}

  BuildingSurface:Detailed,
    Perimeter_bot_ZN_2_Wall_South,  !- Name
    Wall,                    !- Surface Type
    Interior Wall,           !- Construction Name
    Perimeter_bot_ZN_2 Thermal Zone,  !- Zone Name
    ,                        !- Space Name
    Surface,                 !- Outside Boundary Condition
    Perimeter_bot_ZN_1_Wall_East,  !- Outside Boundary Condition Object
    NoSun,                   !- Sun Exposure
    NoWind,                  !- Wind Exposure
    ,                        !- View Factor to Ground
    ,                        !- Number of Vertices
    45.3375,4.5732,3.9624,  !- X,Y,Z ==> Vertex 1 {m}
    45.3375,4.5732,0,  !- X,Y,Z ==> Vertex 2 {m}
    49.911,0,0,  !- X,Y,Z ==> Vertex 3 {m}
    49.911,0,3.9624;  !- X,Y,Z ==> Vertex 4 {m}

  BuildingSurface:Detailed,
    Perimeter_bot_ZN_2_Wall_West,  !- Name
    Wall,                    !- Surface Type
    Interior Wall,           !- Construction Name
    Perimeter_bot_ZN_2 Thermal Zone,  !- Zone Name
    ,                        !- Space Name
    Surface,                 !- Outside Boundary Condition
    Core_bot_ZN_5_Wall_East, !- Outside Boundary Condition Object
    NoSun,                   !- Sun Exposure
    NoWind,                  !- Wind Exposure
    ,                        !- View Factor to Ground
    ,                        !- Number of Vertices
    45.3375,28.7006,3.9624,  !- X,Y,Z ==> Vertex 1 {m}
    45.3375,28.7006,0,  !- X,Y,Z ==> Vertex 2 {m}
    45.3375,4.5732,0,  !- X,Y,Z ==> Vertex 3 {m}
    45.3375,4.5732,3.9624;  !- X,Y,Z ==> Vertex 4 {m}

  BuildingSurface:Detailed,
    Perimeter_bot_ZN_3_Ceililng,  !- Name
    Ceiling,                 !- Surface Type
    Interior Floor,          !- Construction Name
    Perimeter_bot_ZN_3 Thermal Zone,  !- Zone Name
    ,                        !- Space Name
    Surface,                 !- Outside Boundary Condition
    Perimeter_mid_ZN_3_Floor,!- Outside Boundary Condition Object
    NoSun,                   !- Sun Exposure
    NoWind,                  !- Wind Exposure
    ,                        !- View Factor to Ground
    ,                        !- Number of Vertices
    45.3375,28.7006,3.9624,  !- X,Y,Z ==> Vertex 1 {m}
    49.911,33.2738,3.9624,  !- X,Y,Z ==> Vertex 2 {m}
    0,33.2738,3.9624,  !- X,Y,Z ==> Vertex 3 {m}
    4.5732,28.7006,3.9624;  !- X,Y,Z ==> Vertex 4 {m}

  BuildingSurface:Detailed,
    Perimeter_bot_ZN_3_Floor,!- Name
    Floor,                   !- Surface Type
    Perimeter_bot_ZN_3_Floor,!- Construction Name
    Perimeter_bot_ZN_3 Thermal Zone,  !- Zone Name
    ,                        !- Space Name
    GroundFCfactorMethod,    !- Outside Boundary Condition
    ,                        !- Outside Boundary Condition Object
    NoSun,                   !- Sun Exposure
    NoWind,                  !- Wind Exposure
    ,                        !- View Factor to Ground
    ,                        !- Number of Vertices
    49.911,33.2738,0,  !- X,Y,Z ==> Vertex 1 {m}
    45.3375,28.7006,0,  !- X,Y,Z ==> Vertex 2 {m}
    4.5732,28.7006,0,  !- X,Y,Z ==> Vertex 3 {m}
    0,33.2738,0;  !- X,Y,Z ==> Vertex 4 {m}

  BuildingSurface:Detailed,
    Perimeter_bot_ZN_3_Wall_East,  !- Name
    Wall,                    !- Surface Type
    Interior Wall,           !- Construction Name
    Perimeter_bot_ZN_3 Thermal Zone,  !- Zone Name
    ,                        !- Space Name
    Surface,                 !- Outside Boundary Condition
    Perimeter_bot_ZN_2_Wall_North,  !- Outside Boundary Condition Object
    NoSun,                   !- Sun Exposure
    NoWind,                  !- Wind Exposure
    ,                        !- View Factor to Ground
    ,                        !- Number of Vertices
    45.3375,28.7006,3.9624,  !- X,Y,Z ==> Vertex 1 {m}
    45.3375,28.7006,0,  !- X,Y,Z ==> Vertex 2 {m}
    49.911,33.2738,0,  !- X,Y,Z ==> Vertex 3 {m}
    49.911,33.2738,3.9624;  !- X,Y,Z ==> Vertex 4 {m}

  BuildingSurface:Detailed,
    Perimeter_bot_ZN_3_Wall_North,  !- Name
    Wall,                    !- Surface Type
    Exterior Wall,           !- Construction Name
    Perimeter_bot_ZN_3 Thermal Zone,  !- Zone Name
    ,                        !- Space Name
    Outdoors,                !- Outside Boundary Condition
    ,                        !- Outside Boundary Condition Object
    SunExposed,              !- Sun Exposure
    WindExposed,             !- Wind Exposure
    ,                        !- View Factor to Ground
    ,                        !- Number of Vertices
    49.911,33.2738,3.9624,  !- X,Y,Z ==> Vertex 1 {m}
    49.911,33.2738,0,  !- X,Y,Z ==> Vertex 2 {m}
    0,33.2738,0,  !- X,Y,Z ==> Vertex 3 {m}
    0,33.2738,3.9624;  !- X,Y,Z ==> Vertex 4 {m}

  BuildingSurface:Detailed,
    Perimeter_bot_ZN_3_Wall_South,  !- Name
    Wall,                    !- Surface Type
    Interior Wall,           !- Construction Name
    Perimeter_bot_ZN_3 Thermal Zone,  !- Zone Name
    ,                        !- Space Name
    Surface,                 !- Outside Boundary Condition
    Core_bot_ZN_5_Wall_North,!- Outside Boundary Condition Object
    NoSun,                   !- Sun Exposure
    NoWind,                  !- Wind Exposure
    ,                        !- View Factor to Ground
    ,                        !- Number of Vertices
    4.5732,28.7006,3.9624,  !- X,Y,Z ==> Vertex 1 {m}
    4.5732,28.7006,0,  !- X,Y,Z ==> Vertex 2 {m}
    45.3375,28.7006,0,  !- X,Y,Z ==> Vertex 3 {m}
    45.3375,28.7006,3.9624;  !- X,Y,Z ==> Vertex 4 {m}

  BuildingSurface:Detailed,
    Perimeter_bot_ZN_3_Wall_West,  !- Name
    Wall,                    !- Surface Type
    Interior Wall,           !- Construction Name
    Perimeter_bot_ZN_3 Thermal Zone,  !- Zone Name
    ,                        !- Space Name
    Surface,                 !- Outside Boundary Condition
    Perimeter_bot_ZN_4_Wall_North,  !- Outside Boundary Condition Object
    NoSun,                   !- Sun Exposure
    NoWind,                  !- Wind Exposure
    ,                        !- View Factor to Ground
    ,                        !- Number of Vertices
    0,33.2738,3.9624,  !- X,Y,Z ==> Vertex 1 {m}
    0,33.2738,0,  !- X,Y,Z ==> Vertex 2 {m}
    4.5732,28.7006,0,  !- X,Y,Z ==> Vertex 3 {m}
    4.5732,28.7006,3.9624;  !- X,Y,Z ==> Vertex 4 {m}

  BuildingSurface:Detailed,
    Perimeter_bot_ZN_4_Ceiling,  !- Name
    Ceiling,                 !- Surface Type
    Interior Floor,          !- Construction Name
    Perimeter_bot_ZN_4 Thermal Zone,  !- Zone Name
    ,                        !- Space Name
    Surface,                 !- Outside Boundary Condition
    Perimeter_mid_ZN_4_Floor,!- Outside Boundary Condition Object
    NoSun,                   !- Sun Exposure
    NoWind,                  !- Wind Exposure
    ,                        !- View Factor to Ground
    ,                        !- Number of Vertices
    0,0,3.9624,  !- X,Y,Z ==> Vertex 1 {m}
    4.5732,4.5732,3.9624,  !- X,Y,Z ==> Vertex 2 {m}
    4.5732,28.7006,3.9624,  !- X,Y,Z ==> Vertex 3 {m}
    0,33.2738,3.9624;  !- X,Y,Z ==> Vertex 4 {m}

  BuildingSurface:Detailed,
    Perimeter_bot_ZN_4_Floor,!- Name
    Floor,                   !- Surface Type
    Perimeter_bot_ZN_4_Floor,!- Construction Name
    Perimeter_bot_ZN_4 Thermal Zone,  !- Zone Name
    ,                        !- Space Name
    GroundFCfactorMethod,    !- Outside Boundary Condition
    ,                        !- Outside Boundary Condition Object
    NoSun,                   !- Sun Exposure
    NoWind,                  !- Wind Exposure
    ,                        !- View Factor to Ground
    ,                        !- Number of Vertices
    0,33.2738,0,  !- X,Y,Z ==> Vertex 1 {m}
    4.5732,28.7006,0,  !- X,Y,Z ==> Vertex 2 {m}
    4.5732,4.5732,0,  !- X,Y,Z ==> Vertex 3 {m}
    0,0,0;  !- X,Y,Z ==> Vertex 4 {m}

  BuildingSurface:Detailed,
    Perimeter_bot_ZN_4_Wall_East,  !- Name
    Wall,                    !- Surface Type
    Interior Wall,           !- Construction Name
    Perimeter_bot_ZN_4 Thermal Zone,  !- Zone Name
    ,                        !- Space Name
    Surface,                 !- Outside Boundary Condition
    Core_bot_ZN_5_Wall_West, !- Outside Boundary Condition Object
    NoSun,                   !- Sun Exposure
    NoWind,                  !- Wind Exposure
    ,                        !- View Factor to Ground
    ,                        !- Number of Vertices
    4.5732,4.5732,3.9624,  !- X,Y,Z ==> Vertex 1 {m}
    4.5732,4.5732,0,  !- X,Y,Z ==> Vertex 2 {m}
    4.5732,28.7006,0,  !- X,Y,Z ==> Vertex 3 {m}
    4.5732,28.7006,3.9624;  !- X,Y,Z ==> Vertex 4 {m}

  BuildingSurface:Detailed,
    Perimeter_bot_ZN_4_Wall_North,  !- Name
    Wall,                    !- Surface Type
    Interior Wall,           !- Construction Name
    Perimeter_bot_ZN_4 Thermal Zone,  !- Zone Name
    ,                        !- Space Name
    Surface,                 !- Outside Boundary Condition
    Perimeter_bot_ZN_3_Wall_West,  !- Outside Boundary Condition Object
    NoSun,                   !- Sun Exposure
    NoWind,                  !- Wind Exposure
    ,                        !- View Factor to Ground
    ,                        !- Number of Vertices
    4.5732,28.7006,3.9624,  !- X,Y,Z ==> Vertex 1 {m}
    4.5732,28.7006,0,  !- X,Y,Z ==> Vertex 2 {m}
    0,33.2738,0,  !- X,Y,Z ==> Vertex 3 {m}
    0,33.2738,3.9624;  !- X,Y,Z ==> Vertex 4 {m}

  BuildingSurface:Detailed,
    Perimeter_bot_ZN_4_Wall_South,  !- Name
    Wall,                    !- Surface Type
    Interior Wall,           !- Construction Name
    Perimeter_bot_ZN_4 Thermal Zone,  !- Zone Name
    ,                        !- Space Name
    Surface,                 !- Outside Boundary Condition
    Perimeter_bot_ZN_1_Wall_West,  !- Outside Boundary Condition Object
    NoSun,                   !- Sun Exposure
    NoWind,                  !- Wind Exposure
    ,                        !- View Factor to Ground
    ,                        !- Number of Vertices
    0,0,3.9624,  !- X,Y,Z ==> Vertex 1 {m}
    0,0,0,  !- X,Y,Z ==> Vertex 2 {m}
    4.5732,4.5732,0,  !- X,Y,Z ==> Vertex 3 {m}
    4.5732,4.5732,3.9624;  !- X,Y,Z ==> Vertex 4 {m}

  BuildingSurface:Detailed,
    Perimeter_bot_ZN_4_Wall_West,  !- Name
    Wall,                    !- Surface Type
    Exterior Wall,           !- Construction Name
    Perimeter_bot_ZN_4 Thermal Zone,  !- Zone Name
    ,                        !- Space Name
    Outdoors,                !- Outside Boundary Condition
    ,                        !- Outside Boundary Condition Object
    SunExposed,              !- Sun Exposure
    WindExposed,             !- Wind Exposure
    ,                        !- View Factor to Ground
    ,                        !- Number of Vertices
    0,33.2738,3.9624,  !- X,Y,Z ==> Vertex 1 {m}
    0,33.2738,0,  !- X,Y,Z ==> Vertex 2 {m}
    0,0,0,  !- X,Y,Z ==> Vertex 3 {m}
    0,0,3.9624;  !- X,Y,Z ==> Vertex 4 {m}

  BuildingSurface:Detailed,
    Perimeter_mid_ZN_1_Ceiling,  !- Name
    Ceiling,                 !- Surface Type
    Interior Floor,          !- Construction Name
    Perimeter_mid_ZN_1 Thermal Zone,  !- Zone Name
    ,                        !- Space Name
    Surface,                 !- Outside Boundary Condition
    Perimeter_top_ZN_1_Floor,!- Outside Boundary Condition Object
    NoSun,                   !- Sun Exposure
    NoWind,                  !- Wind Exposure
    ,                        !- View Factor to Ground
    ,                        !- Number of Vertices
    49.911,0,7.9248,  !- X,Y,Z ==> Vertex 1 {m}
    45.3375,4.5732,7.9248,  !- X,Y,Z ==> Vertex 2 {m}
    4.5732,4.5732,7.9248,  !- X,Y,Z ==> Vertex 3 {m}
    0,0,7.9248;  !- X,Y,Z ==> Vertex 4 {m}

  BuildingSurface:Detailed,
    Perimeter_mid_ZN_1_Floor,!- Name
    Floor,                   !- Surface Type
    Interior Floor,          !- Construction Name
    Perimeter_mid_ZN_1 Thermal Zone,  !- Zone Name
    ,                        !- Space Name
    Surface,                 !- Outside Boundary Condition
    Perimeter_bot_ZN_1_Ceiling,  !- Outside Boundary Condition Object
    NoSun,                   !- Sun Exposure
    NoWind,                  !- Wind Exposure
    ,                        !- View Factor to Ground
    ,                        !- Number of Vertices
    45.3375,4.5732,3.9624,  !- X,Y,Z ==> Vertex 1 {m}
    49.911,0,3.9624,  !- X,Y,Z ==> Vertex 2 {m}
    0,0,3.9624,  !- X,Y,Z ==> Vertex 3 {m}
    4.5732,4.5732,3.9624;  !- X,Y,Z ==> Vertex 4 {m}

  BuildingSurface:Detailed,
    Perimeter_mid_ZN_1_Wall_East,  !- Name
    Wall,                    !- Surface Type
    Interior Wall,           !- Construction Name
    Perimeter_mid_ZN_1 Thermal Zone,  !- Zone Name
    ,                        !- Space Name
    Surface,                 !- Outside Boundary Condition
    Perimeter_mid_ZN_2_Wall_South,  !- Outside Boundary Condition Object
    NoSun,                   !- Sun Exposure
    NoWind,                  !- Wind Exposure
    ,                        !- View Factor to Ground
    ,                        !- Number of Vertices
    49.911,0,7.9248,  !- X,Y,Z ==> Vertex 1 {m}
    49.911,0,3.9624,  !- X,Y,Z ==> Vertex 2 {m}
    45.3375,4.5732,3.9624,  !- X,Y,Z ==> Vertex 3 {m}
    45.3375,4.5732,7.9248;  !- X,Y,Z ==> Vertex 4 {m}

  BuildingSurface:Detailed,
    Perimeter_mid_ZN_1_Wall_North,  !- Name
    Wall,                    !- Surface Type
    Interior Wall,           !- Construction Name
    Perimeter_mid_ZN_1 Thermal Zone,  !- Zone Name
    ,                        !- Space Name
    Surface,                 !- Outside Boundary Condition
    Core_mid_ZN_5_Wall_South,!- Outside Boundary Condition Object
    NoSun,                   !- Sun Exposure
    NoWind,                  !- Wind Exposure
    ,                        !- View Factor to Ground
    ,                        !- Number of Vertices
    45.3375,4.5732,7.9248,  !- X,Y,Z ==> Vertex 1 {m}
    45.3375,4.5732,3.9624,  !- X,Y,Z ==> Vertex 2 {m}
    4.5732,4.5732,3.9624,  !- X,Y,Z ==> Vertex 3 {m}
    4.5732,4.5732,7.9248;  !- X,Y,Z ==> Vertex 4 {m}

  BuildingSurface:Detailed,
    Perimeter_mid_ZN_1_Wall_South,  !- Name
    Wall,                    !- Surface Type
    Exterior Wall,           !- Construction Name
    Perimeter_mid_ZN_1 Thermal Zone,  !- Zone Name
    ,                        !- Space Name
    Outdoors,                !- Outside Boundary Condition
    ,                        !- Outside Boundary Condition Object
    SunExposed,              !- Sun Exposure
    WindExposed,             !- Wind Exposure
    ,                        !- View Factor to Ground
    ,                        !- Number of Vertices
    0,0,7.9248,  !- X,Y,Z ==> Vertex 1 {m}
    0,0,3.9624,  !- X,Y,Z ==> Vertex 2 {m}
    49.911,0,3.9624,  !- X,Y,Z ==> Vertex 3 {m}
    49.911,0,7.9248;  !- X,Y,Z ==> Vertex 4 {m}

  BuildingSurface:Detailed,
    Perimeter_mid_ZN_1_Wall_West,  !- Name
    Wall,                    !- Surface Type
    Interior Wall,           !- Construction Name
    Perimeter_mid_ZN_1 Thermal Zone,  !- Zone Name
    ,                        !- Space Name
    Surface,                 !- Outside Boundary Condition
    Perimeter_mid_ZN_4_Wall_South,  !- Outside Boundary Condition Object
    NoSun,                   !- Sun Exposure
    NoWind,                  !- Wind Exposure
    ,                        !- View Factor to Ground
    ,                        !- Number of Vertices
    4.5732,4.5732,7.9248,  !- X,Y,Z ==> Vertex 1 {m}
    4.5732,4.5732,3.9624,  !- X,Y,Z ==> Vertex 2 {m}
    0,0,3.9624,  !- X,Y,Z ==> Vertex 3 {m}
    0,0,7.9248;  !- X,Y,Z ==> Vertex 4 {m}

  BuildingSurface:Detailed,
    Perimeter_mid_ZN_2_Ceiling,  !- Name
    Ceiling,                 !- Surface Type
    Interior Floor,          !- Construction Name
    Perimeter_mid_ZN_2 Thermal Zone,  !- Zone Name
    ,                        !- Space Name
    Surface,                 !- Outside Boundary Condition
    Perimeter_top_ZN_2_Floor,!- Outside Boundary Condition Object
    NoSun,                   !- Sun Exposure
    NoWind,                  !- Wind Exposure
    ,                        !- View Factor to Ground
    ,                        !- Number of Vertices
    49.911,0,7.9248,  !- X,Y,Z ==> Vertex 1 {m}
    49.911,33.2738,7.9248,  !- X,Y,Z ==> Vertex 2 {m}
    45.3375,28.7006,7.9248,  !- X,Y,Z ==> Vertex 3 {m}
    45.3375,4.5732,7.9248;  !- X,Y,Z ==> Vertex 4 {m}

  BuildingSurface:Detailed,
    Perimeter_mid_ZN_2_Floor,!- Name
    Floor,                   !- Surface Type
    Interior Floor,          !- Construction Name
    Perimeter_mid_ZN_2 Thermal Zone,  !- Zone Name
    ,                        !- Space Name
    Surface,                 !- Outside Boundary Condition
    Perimeter_bot_ZN_2_Ceiling,  !- Outside Boundary Condition Object
    NoSun,                   !- Sun Exposure
    NoWind,                  !- Wind Exposure
    ,                        !- View Factor to Ground
    ,                        !- Number of Vertices
    49.911,33.2738,3.9624,  !- X,Y,Z ==> Vertex 1 {m}
    49.911,0,3.9624,  !- X,Y,Z ==> Vertex 2 {m}
    45.3375,4.5732,3.9624,  !- X,Y,Z ==> Vertex 3 {m}
    45.3375,28.7006,3.9624;  !- X,Y,Z ==> Vertex 4 {m}

  BuildingSurface:Detailed,
    Perimeter_mid_ZN_2_Wall_East,  !- Name
    Wall,                    !- Surface Type
    Exterior Wall,           !- Construction Name
    Perimeter_mid_ZN_2 Thermal Zone,  !- Zone Name
    ,                        !- Space Name
    Outdoors,                !- Outside Boundary Condition
    ,                        !- Outside Boundary Condition Object
    SunExposed,              !- Sun Exposure
    WindExposed,             !- Wind Exposure
    ,                        !- View Factor to Ground
    ,                        !- Number of Vertices
    49.911,0,7.9248,  !- X,Y,Z ==> Vertex 1 {m}
    49.911,0,3.9624,  !- X,Y,Z ==> Vertex 2 {m}
    49.911,33.2738,3.9624,  !- X,Y,Z ==> Vertex 3 {m}
    49.911,33.2738,7.9248;  !- X,Y,Z ==> Vertex 4 {m}

  BuildingSurface:Detailed,
    Perimeter_mid_ZN_2_Wall_North,  !- Name
    Wall,                    !- Surface Type
    Interior Wall,           !- Construction Name
    Perimeter_mid_ZN_2 Thermal Zone,  !- Zone Name
    ,                        !- Space Name
    Surface,                 !- Outside Boundary Condition
    Perimeter_mid_ZN_3_Wall_East,  !- Outside Boundary Condition Object
    NoSun,                   !- Sun Exposure
    NoWind,                  !- Wind Exposure
    ,                        !- View Factor to Ground
    ,                        !- Number of Vertices
    49.911,33.2738,7.9248,  !- X,Y,Z ==> Vertex 1 {m}
    49.911,33.2738,3.9624,  !- X,Y,Z ==> Vertex 2 {m}
    45.3375,28.7006,3.9624,  !- X,Y,Z ==> Vertex 3 {m}
    45.3375,28.7006,7.9248;  !- X,Y,Z ==> Vertex 4 {m}

  BuildingSurface:Detailed,
    Perimeter_mid_ZN_2_Wall_South,  !- Name
    Wall,                    !- Surface Type
    Interior Wall,           !- Construction Name
    Perimeter_mid_ZN_2 Thermal Zone,  !- Zone Name
    ,                        !- Space Name
    Surface,                 !- Outside Boundary Condition
    Perimeter_mid_ZN_1_Wall_East,  !- Outside Boundary Condition Object
    NoSun,                   !- Sun Exposure
    NoWind,                  !- Wind Exposure
    ,                        !- View Factor to Ground
    ,                        !- Number of Vertices
    45.3375,4.5732,7.9248,  !- X,Y,Z ==> Vertex 1 {m}
    45.3375,4.5732,3.9624,  !- X,Y,Z ==> Vertex 2 {m}
    49.911,0,3.9624,  !- X,Y,Z ==> Vertex 3 {m}
    49.911,0,7.9248;  !- X,Y,Z ==> Vertex 4 {m}

  BuildingSurface:Detailed,
    Perimeter_mid_ZN_2_Wall_West,  !- Name
    Wall,                    !- Surface Type
    Interior Wall,           !- Construction Name
    Perimeter_mid_ZN_2 Thermal Zone,  !- Zone Name
    ,                        !- Space Name
    Surface,                 !- Outside Boundary Condition
    Core_mid_ZN_5_Wall_East, !- Outside Boundary Condition Object
    NoSun,                   !- Sun Exposure
    NoWind,                  !- Wind Exposure
    ,                        !- View Factor to Ground
    ,                        !- Number of Vertices
    45.3375,28.7006,7.9248,  !- X,Y,Z ==> Vertex 1 {m}
    45.3375,28.7006,3.9624,  !- X,Y,Z ==> Vertex 2 {m}
    45.3375,4.5732,3.9624,  !- X,Y,Z ==> Vertex 3 {m}
    45.3375,4.5732,7.9248;  !- X,Y,Z ==> Vertex 4 {m}

  BuildingSurface:Detailed,
    Perimeter_mid_ZN_3_Ceiling,  !- Name
    Ceiling,                 !- Surface Type
    Interior Floor,          !- Construction Name
    Perimeter_mid_ZN_3 Thermal Zone,  !- Zone Name
    ,                        !- Space Name
    Surface,                 !- Outside Boundary Condition
    Perimeter_top_ZN_3_Floor,!- Outside Boundary Condition Object
    NoSun,                   !- Sun Exposure
    NoWind,                  !- Wind Exposure
    ,                        !- View Factor to Ground
    ,                        !- Number of Vertices
    45.3375,28.7006,7.9248,  !- X,Y,Z ==> Vertex 1 {m}
    49.911,33.2738,7.9248,  !- X,Y,Z ==> Vertex 2 {m}
    0,33.2738,7.9248,  !- X,Y,Z ==> Vertex 3 {m}
    4.5732,28.7006,7.9248;  !- X,Y,Z ==> Vertex 4 {m}

  BuildingSurface:Detailed,
    Perimeter_mid_ZN_3_Floor,!- Name
    Floor,                   !- Surface Type
    Interior Floor,          !- Construction Name
    Perimeter_mid_ZN_3 Thermal Zone,  !- Zone Name
    ,                        !- Space Name
    Surface,                 !- Outside Boundary Condition
    Perimeter_bot_ZN_3_Ceililng,  !- Outside Boundary Condition Object
    NoSun,                   !- Sun Exposure
    NoWind,                  !- Wind Exposure
    ,                        !- View Factor to Ground
    ,                        !- Number of Vertices
    49.911,33.2738,3.9624,  !- X,Y,Z ==> Vertex 1 {m}
    45.3375,28.7006,3.9624,  !- X,Y,Z ==> Vertex 2 {m}
    4.5732,28.7006,3.9624,  !- X,Y,Z ==> Vertex 3 {m}
    0,33.2738,3.9624;  !- X,Y,Z ==> Vertex 4 {m}

  BuildingSurface:Detailed,
    Perimeter_mid_ZN_3_Wall_East,  !- Name
    Wall,                    !- Surface Type
    Interior Wall,           !- Construction Name
    Perimeter_mid_ZN_3 Thermal Zone,  !- Zone Name
    ,                        !- Space Name
    Surface,                 !- Outside Boundary Condition
    Perimeter_mid_ZN_2_Wall_North,  !- Outside Boundary Condition Object
    NoSun,                   !- Sun Exposure
    NoWind,                  !- Wind Exposure
    ,                        !- View Factor to Ground
    ,                        !- Number of Vertices
    45.3375,28.7006,7.9248,  !- X,Y,Z ==> Vertex 1 {m}
    45.3375,28.7006,3.9624,  !- X,Y,Z ==> Vertex 2 {m}
    49.911,33.2738,3.9624,  !- X,Y,Z ==> Vertex 3 {m}
    49.911,33.2738,7.9248;  !- X,Y,Z ==> Vertex 4 {m}

  BuildingSurface:Detailed,
    Perimeter_mid_ZN_3_Wall_North,  !- Name
    Wall,                    !- Surface Type
    Exterior Wall,           !- Construction Name
    Perimeter_mid_ZN_3 Thermal Zone,  !- Zone Name
    ,                        !- Space Name
    Outdoors,                !- Outside Boundary Condition
    ,                        !- Outside Boundary Condition Object
    SunExposed,              !- Sun Exposure
    WindExposed,             !- Wind Exposure
    ,                        !- View Factor to Ground
    ,                        !- Number of Vertices
    49.911,33.2738,7.9248,  !- X,Y,Z ==> Vertex 1 {m}
    49.911,33.2738,3.9624,  !- X,Y,Z ==> Vertex 2 {m}
    0,33.2738,3.9624,  !- X,Y,Z ==> Vertex 3 {m}
    0,33.2738,7.9248;  !- X,Y,Z ==> Vertex 4 {m}

  BuildingSurface:Detailed,
    Perimeter_mid_ZN_3_Wall_South,  !- Name
    Wall,                    !- Surface Type
    Interior Wall,           !- Construction Name
    Perimeter_mid_ZN_3 Thermal Zone,  !- Zone Name
    ,                        !- Space Name
    Surface,                 !- Outside Boundary Condition
    Core_mid_ZN_5_Wall_North,!- Outside Boundary Condition Object
    NoSun,                   !- Sun Exposure
    NoWind,                  !- Wind Exposure
    ,                        !- View Factor to Ground
    ,                        !- Number of Vertices
    4.5732,28.7006,7.9248,  !- X,Y,Z ==> Vertex 1 {m}
    4.5732,28.7006,3.9624,  !- X,Y,Z ==> Vertex 2 {m}
    45.3375,28.7006,3.9624,  !- X,Y,Z ==> Vertex 3 {m}
    45.3375,28.7006,7.9248;  !- X,Y,Z ==> Vertex 4 {m}

  BuildingSurface:Detailed,
    Perimeter_mid_ZN_3_Wall_West,  !- Name
    Wall,                    !- Surface Type
    Interior Wall,           !- Construction Name
    Perimeter_mid_ZN_3 Thermal Zone,  !- Zone Name
    ,                        !- Space Name
    Surface,                 !- Outside Boundary Condition
    Perimeter_mid_ZN_4_Wall_North,  !- Outside Boundary Condition Object
    NoSun,                   !- Sun Exposure
    NoWind,                  !- Wind Exposure
    ,                        !- View Factor to Ground
    ,                        !- Number of Vertices
    0,33.2738,7.9248,  !- X,Y,Z ==> Vertex 1 {m}
    0,33.2738,3.9624,  !- X,Y,Z ==> Vertex 2 {m}
    4.5732,28.7006,3.9624,  !- X,Y,Z ==> Vertex 3 {m}
    4.5732,28.7006,7.9248;  !- X,Y,Z ==> Vertex 4 {m}

  BuildingSurface:Detailed,
    Perimeter_mid_ZN_4_Ceiling,  !- Name
    Ceiling,                 !- Surface Type
    Interior Floor,          !- Construction Name
    Perimeter_mid_ZN_4 Thermal Zone,  !- Zone Name
    ,                        !- Space Name
    Surface,                 !- Outside Boundary Condition
    Perimeter_top_ZN_4_Floor,!- Outside Boundary Condition Object
    NoSun,                   !- Sun Exposure
    NoWind,                  !- Wind Exposure
    ,                        !- View Factor to Ground
    ,                        !- Number of Vertices
    0,0,7.9248,  !- X,Y,Z ==> Vertex 1 {m}
    4.5732,4.5732,7.9248,  !- X,Y,Z ==> Vertex 2 {m}
    4.5732,28.7006,7.9248,  !- X,Y,Z ==> Vertex 3 {m}
    0,33.2738,7.9248;  !- X,Y,Z ==> Vertex 4 {m}

  BuildingSurface:Detailed,
    Perimeter_mid_ZN_4_Floor,!- Name
    Floor,                   !- Surface Type
    Interior Floor,          !- Construction Name
    Perimeter_mid_ZN_4 Thermal Zone,  !- Zone Name
    ,                        !- Space Name
    Surface,                 !- Outside Boundary Condition
    Perimeter_bot_ZN_4_Ceiling,  !- Outside Boundary Condition Object
    NoSun,                   !- Sun Exposure
    NoWind,                  !- Wind Exposure
    ,                        !- View Factor to Ground
    ,                        !- Number of Vertices
    0,33.2738,3.9624,  !- X,Y,Z ==> Vertex 1 {m}
    4.5732,28.7006,3.9624,  !- X,Y,Z ==> Vertex 2 {m}
    4.5732,4.5732,3.9624,  !- X,Y,Z ==> Vertex 3 {m}
    0,0,3.9624;  !- X,Y,Z ==> Vertex 4 {m}

  BuildingSurface:Detailed,
    Perimeter_mid_ZN_4_Wall_East,  !- Name
    Wall,                    !- Surface Type
    Interior Wall,           !- Construction Name
    Perimeter_mid_ZN_4 Thermal Zone,  !- Zone Name
    ,                        !- Space Name
    Surface,                 !- Outside Boundary Condition
    Core_mid_ZN_5_Wall_West, !- Outside Boundary Condition Object
    NoSun,                   !- Sun Exposure
    NoWind,                  !- Wind Exposure
    ,                        !- View Factor to Ground
    ,                        !- Number of Vertices
    4.5732,4.5732,7.9248,  !- X,Y,Z ==> Vertex 1 {m}
    4.5732,4.5732,3.9624,  !- X,Y,Z ==> Vertex 2 {m}
    4.5732,28.7006,3.9624,  !- X,Y,Z ==> Vertex 3 {m}
    4.5732,28.7006,7.9248;  !- X,Y,Z ==> Vertex 4 {m}

  BuildingSurface:Detailed,
    Perimeter_mid_ZN_4_Wall_North,  !- Name
    Wall,                    !- Surface Type
    Interior Wall,           !- Construction Name
    Perimeter_mid_ZN_4 Thermal Zone,  !- Zone Name
    ,                        !- Space Name
    Surface,                 !- Outside Boundary Condition
    Perimeter_mid_ZN_3_Wall_West,  !- Outside Boundary Condition Object
    NoSun,                   !- Sun Exposure
    NoWind,                  !- Wind Exposure
    ,                        !- View Factor to Ground
    ,                        !- Number of Vertices
    4.5732,28.7006,7.9248,  !- X,Y,Z ==> Vertex 1 {m}
    4.5732,28.7006,3.9624,  !- X,Y,Z ==> Vertex 2 {m}
    0,33.2738,3.9624,  !- X,Y,Z ==> Vertex 3 {m}
    0,33.2738,7.9248;  !- X,Y,Z ==> Vertex 4 {m}

  BuildingSurface:Detailed,
    Perimeter_mid_ZN_4_Wall_South,  !- Name
    Wall,                    !- Surface Type
    Interior Wall,           !- Construction Name
    Perimeter_mid_ZN_4 Thermal Zone,  !- Zone Name
    ,                        !- Space Name
    Surface,                 !- Outside Boundary Condition
    Perimeter_mid_ZN_1_Wall_West,  !- Outside Boundary Condition Object
    NoSun,                   !- Sun Exposure
    NoWind,                  !- Wind Exposure
    ,                        !- View Factor to Ground
    ,                        !- Number of Vertices
    0,0,7.9248,  !- X,Y,Z ==> Vertex 1 {m}
    0,0,3.9624,  !- X,Y,Z ==> Vertex 2 {m}
    4.5732,4.5732,3.9624,  !- X,Y,Z ==> Vertex 3 {m}
    4.5732,4.5732,7.9248;  !- X,Y,Z ==> Vertex 4 {m}

  BuildingSurface:Detailed,
    Perimeter_mid_ZN_4_Wall_West,  !- Name
    Wall,                    !- Surface Type
    Exterior Wall,           !- Construction Name
    Perimeter_mid_ZN_4 Thermal Zone,  !- Zone Name
    ,                        !- Space Name
    Outdoors,                !- Outside Boundary Condition
    ,                        !- Outside Boundary Condition Object
    SunExposed,              !- Sun Exposure
    WindExposed,             !- Wind Exposure
    ,                        !- View Factor to Ground
    ,                        !- Number of Vertices
    0,33.2738,7.9248,  !- X,Y,Z ==> Vertex 1 {m}
    0,33.2738,3.9624,  !- X,Y,Z ==> Vertex 2 {m}
    0,0,3.9624,  !- X,Y,Z ==> Vertex 3 {m}
    0,0,7.9248;  !- X,Y,Z ==> Vertex 4 {m}

  BuildingSurface:Detailed,
    Perimeter_top_ZN_1_Ceiling,  !- Name
    Roof,                    !- Surface Type
    Exterior Roof,           !- Construction Name
    Perimeter_top_ZN_1 Thermal Zone,  !- Zone Name
    ,                        !- Space Name
    Outdoors,                !- Outside Boundary Condition
    ,                        !- Outside Boundary Condition Object
    SunExposed,              !- Sun Exposure
    WindExposed,             !- Wind Exposure
    ,                        !- View Factor to Ground
    ,                        !- Number of Vertices
    49.911,0,11.8872,  !- X,Y,Z ==> Vertex 1 {m}
    45.3375,4.5732,11.8872,  !- X,Y,Z ==> Vertex 2 {m}
    4.5732,4.5732,11.8872,  !- X,Y,Z ==> Vertex 3 {m}
    0,0,11.8872;  !- X,Y,Z ==> Vertex 4 {m}

  BuildingSurface:Detailed,
    Perimeter_top_ZN_1_Floor,!- Name
    Floor,                   !- Surface Type
    Interior Floor,          !- Construction Name
    Perimeter_top_ZN_1 Thermal Zone,  !- Zone Name
    ,                        !- Space Name
    Surface,                 !- Outside Boundary Condition
    Perimeter_mid_ZN_1_Ceiling,  !- Outside Boundary Condition Object
    NoSun,                   !- Sun Exposure
    NoWind,                  !- Wind Exposure
    ,                        !- View Factor to Ground
    ,                        !- Number of Vertices
    45.3375,4.5732,7.9248,  !- X,Y,Z ==> Vertex 1 {m}
    49.911,0,7.9248,  !- X,Y,Z ==> Vertex 2 {m}
    0,0,7.9248,  !- X,Y,Z ==> Vertex 3 {m}
    4.5732,4.5732,7.9248;  !- X,Y,Z ==> Vertex 4 {m}

  BuildingSurface:Detailed,
    Perimeter_top_ZN_1_Wall_East,  !- Name
    Wall,                    !- Surface Type
    Interior Wall,           !- Construction Name
    Perimeter_top_ZN_1 Thermal Zone,  !- Zone Name
    ,                        !- Space Name
    Surface,                 !- Outside Boundary Condition
    Perimeter_top_ZN_2_Wall_South,  !- Outside Boundary Condition Object
    NoSun,                   !- Sun Exposure
    NoWind,                  !- Wind Exposure
    ,                        !- View Factor to Ground
    ,                        !- Number of Vertices
    49.911,0,11.8872,  !- X,Y,Z ==> Vertex 1 {m}
    49.911,0,7.9248,  !- X,Y,Z ==> Vertex 2 {m}
    45.3375,4.5732,7.9248,  !- X,Y,Z ==> Vertex 3 {m}
    45.3375,4.5732,11.8872;  !- X,Y,Z ==> Vertex 4 {m}

  BuildingSurface:Detailed,
    Perimeter_top_ZN_1_Wall_North,  !- Name
    Wall,                    !- Surface Type
    Interior Wall,           !- Construction Name
    Perimeter_top_ZN_1 Thermal Zone,  !- Zone Name
    ,                        !- Space Name
    Surface,                 !- Outside Boundary Condition
    Core_top_ZN_5_Wall_South,!- Outside Boundary Condition Object
    NoSun,                   !- Sun Exposure
    NoWind,                  !- Wind Exposure
    ,                        !- View Factor to Ground
    ,                        !- Number of Vertices
    45.3375,4.5732,11.8872,  !- X,Y,Z ==> Vertex 1 {m}
    45.3375,4.5732,7.9248,  !- X,Y,Z ==> Vertex 2 {m}
    4.5732,4.5732,7.9248,  !- X,Y,Z ==> Vertex 3 {m}
    4.5732,4.5732,11.8872;  !- X,Y,Z ==> Vertex 4 {m}

  BuildingSurface:Detailed,
    Perimeter_top_ZN_1_Wall_South,  !- Name
    Wall,                    !- Surface Type
    Exterior Wall,           !- Construction Name
    Perimeter_top_ZN_1 Thermal Zone,  !- Zone Name
    ,                        !- Space Name
    Outdoors,                !- Outside Boundary Condition
    ,                        !- Outside Boundary Condition Object
    SunExposed,              !- Sun Exposure
    WindExposed,             !- Wind Exposure
    ,                        !- View Factor to Ground
    ,                        !- Number of Vertices
    0,0,11.8872,  !- X,Y,Z ==> Vertex 1 {m}
    0,0,7.9248,  !- X,Y,Z ==> Vertex 2 {m}
    49.911,0,7.9248,  !- X,Y,Z ==> Vertex 3 {m}
    49.911,0,11.8872;  !- X,Y,Z ==> Vertex 4 {m}

  BuildingSurface:Detailed,
    Perimeter_top_ZN_1_Wall_West,  !- Name
    Wall,                    !- Surface Type
    Interior Wall,           !- Construction Name
    Perimeter_top_ZN_1 Thermal Zone,  !- Zone Name
    ,                        !- Space Name
    Surface,                 !- Outside Boundary Condition
    Perimeter_top_ZN_4_Wall_South,  !- Outside Boundary Condition Object
    NoSun,                   !- Sun Exposure
    NoWind,                  !- Wind Exposure
    ,                        !- View Factor to Ground
    ,                        !- Number of Vertices
    4.5732,4.5732,11.8872,  !- X,Y,Z ==> Vertex 1 {m}
    4.5732,4.5732,7.9248,  !- X,Y,Z ==> Vertex 2 {m}
    0,0,7.9248,  !- X,Y,Z ==> Vertex 3 {m}
    0,0,11.8872;  !- X,Y,Z ==> Vertex 4 {m}

  BuildingSurface:Detailed,
    Perimeter_top_ZN_2_Ceiling,  !- Name
    Roof,                    !- Surface Type
    Exterior Roof,           !- Construction Name
    Perimeter_top_ZN_2 Thermal Zone,  !- Zone Name
    ,                        !- Space Name
    Outdoors,                !- Outside Boundary Condition
    ,                        !- Outside Boundary Condition Object
    SunExposed,              !- Sun Exposure
    WindExposed,             !- Wind Exposure
    ,                        !- View Factor to Ground
    ,                        !- Number of Vertices
    49.911,0,11.8872,  !- X,Y,Z ==> Vertex 1 {m}
    49.911,33.2738,11.8872,  !- X,Y,Z ==> Vertex 2 {m}
    45.3375,28.7006,11.8872,  !- X,Y,Z ==> Vertex 3 {m}
    45.3375,4.5732,11.8872;  !- X,Y,Z ==> Vertex 4 {m}

  BuildingSurface:Detailed,
    Perimeter_top_ZN_2_Floor,!- Name
    Floor,                   !- Surface Type
    Interior Floor,          !- Construction Name
    Perimeter_top_ZN_2 Thermal Zone,  !- Zone Name
    ,                        !- Space Name
    Surface,                 !- Outside Boundary Condition
    Perimeter_mid_ZN_2_Ceiling,  !- Outside Boundary Condition Object
    NoSun,                   !- Sun Exposure
    NoWind,                  !- Wind Exposure
    ,                        !- View Factor to Ground
    ,                        !- Number of Vertices
    49.911,33.2738,7.9248,  !- X,Y,Z ==> Vertex 1 {m}
    49.911,0,7.9248,  !- X,Y,Z ==> Vertex 2 {m}
    45.3375,4.5732,7.9248,  !- X,Y,Z ==> Vertex 3 {m}
    45.3375,28.7006,7.9248;  !- X,Y,Z ==> Vertex 4 {m}

  BuildingSurface:Detailed,
    Perimeter_top_ZN_2_Wall_East,  !- Name
    Wall,                    !- Surface Type
    Exterior Wall,           !- Construction Name
    Perimeter_top_ZN_2 Thermal Zone,  !- Zone Name
    ,                        !- Space Name
    Outdoors,                !- Outside Boundary Condition
    ,                        !- Outside Boundary Condition Object
    SunExposed,              !- Sun Exposure
    WindExposed,             !- Wind Exposure
    ,                        !- View Factor to Ground
    ,                        !- Number of Vertices
    49.911,0,11.8872,  !- X,Y,Z ==> Vertex 1 {m}
    49.911,0,7.9248,  !- X,Y,Z ==> Vertex 2 {m}
    49.911,33.2738,7.9248,  !- X,Y,Z ==> Vertex 3 {m}
    49.911,33.2738,11.8872;  !- X,Y,Z ==> Vertex 4 {m}

  BuildingSurface:Detailed,
    Perimeter_top_ZN_2_Wall_North,  !- Name
    Wall,                    !- Surface Type
    Interior Wall,           !- Construction Name
    Perimeter_top_ZN_2 Thermal Zone,  !- Zone Name
    ,                        !- Space Name
    Surface,                 !- Outside Boundary Condition
    Perimeter_top_ZN_3_Wall_East,  !- Outside Boundary Condition Object
    NoSun,                   !- Sun Exposure
    NoWind,                  !- Wind Exposure
    ,                        !- View Factor to Ground
    ,                        !- Number of Vertices
    49.911,33.2738,11.8872,  !- X,Y,Z ==> Vertex 1 {m}
    49.911,33.2738,7.9248,  !- X,Y,Z ==> Vertex 2 {m}
    45.3375,28.7006,7.9248,  !- X,Y,Z ==> Vertex 3 {m}
    45.3375,28.7006,11.8872;  !- X,Y,Z ==> Vertex 4 {m}

  BuildingSurface:Detailed,
    Perimeter_top_ZN_2_Wall_South,  !- Name
    Wall,                    !- Surface Type
    Interior Wall,           !- Construction Name
    Perimeter_top_ZN_2 Thermal Zone,  !- Zone Name
    ,                        !- Space Name
    Surface,                 !- Outside Boundary Condition
    Perimeter_top_ZN_1_Wall_East,  !- Outside Boundary Condition Object
    NoSun,                   !- Sun Exposure
    NoWind,                  !- Wind Exposure
    ,                        !- View Factor to Ground
    ,                        !- Number of Vertices
    45.3375,4.5732,11.8872,  !- X,Y,Z ==> Vertex 1 {m}
    45.3375,4.5732,7.9248,  !- X,Y,Z ==> Vertex 2 {m}
    49.911,0,7.9248,  !- X,Y,Z ==> Vertex 3 {m}
    49.911,0,11.8872;  !- X,Y,Z ==> Vertex 4 {m}

  BuildingSurface:Detailed,
    Perimeter_top_ZN_2_Wall_West,  !- Name
    Wall,                    !- Surface Type
    Interior Wall,           !- Construction Name
    Perimeter_top_ZN_2 Thermal Zone,  !- Zone Name
    ,                        !- Space Name
    Surface,                 !- Outside Boundary Condition
    Core_top_ZN_5_Wall_East, !- Outside Boundary Condition Object
    NoSun,                   !- Sun Exposure
    NoWind,                  !- Wind Exposure
    ,                        !- View Factor to Ground
    ,                        !- Number of Vertices
    45.3375,28.7006,11.8872,  !- X,Y,Z ==> Vertex 1 {m}
    45.3375,28.7006,7.9248,  !- X,Y,Z ==> Vertex 2 {m}
    45.3375,4.5732,7.9248,  !- X,Y,Z ==> Vertex 3 {m}
    45.3375,4.5732,11.8872;  !- X,Y,Z ==> Vertex 4 {m}

  BuildingSurface:Detailed,
    Perimeter_top_ZN_3_Ceiling,  !- Name
    Roof,                    !- Surface Type
    Exterior Roof,           !- Construction Name
    Perimeter_top_ZN_3 Thermal Zone,  !- Zone Name
    ,                        !- Space Name
    Outdoors,                !- Outside Boundary Condition
    ,                        !- Outside Boundary Condition Object
    SunExposed,              !- Sun Exposure
    WindExposed,             !- Wind Exposure
    ,                        !- View Factor to Ground
    ,                        !- Number of Vertices
    45.3375,28.7006,11.8872,  !- X,Y,Z ==> Vertex 1 {m}
    49.911,33.2738,11.8872,  !- X,Y,Z ==> Vertex 2 {m}
    0,33.2738,11.8872,  !- X,Y,Z ==> Vertex 3 {m}
    4.5732,28.7006,11.8872;  !- X,Y,Z ==> Vertex 4 {m}

  BuildingSurface:Detailed,
    Perimeter_top_ZN_3_Floor,!- Name
    Floor,                   !- Surface Type
    Interior Floor,          !- Construction Name
    Perimeter_top_ZN_3 Thermal Zone,  !- Zone Name
    ,                        !- Space Name
    Surface,                 !- Outside Boundary Condition
    Perimeter_mid_ZN_3_Ceiling,  !- Outside Boundary Condition Object
    NoSun,                   !- Sun Exposure
    NoWind,                  !- Wind Exposure
    ,                        !- View Factor to Ground
    ,                        !- Number of Vertices
    49.911,33.2738,7.9248,  !- X,Y,Z ==> Vertex 1 {m}
    45.3375,28.7006,7.9248,  !- X,Y,Z ==> Vertex 2 {m}
    4.5732,28.7006,7.9248,  !- X,Y,Z ==> Vertex 3 {m}
    0,33.2738,7.9248;  !- X,Y,Z ==> Vertex 4 {m}

  BuildingSurface:Detailed,
    Perimeter_top_ZN_3_Wall_East,  !- Name
    Wall,                    !- Surface Type
    Interior Wall,           !- Construction Name
    Perimeter_top_ZN_3 Thermal Zone,  !- Zone Name
    ,                        !- Space Name
    Surface,                 !- Outside Boundary Condition
    Perimeter_top_ZN_2_Wall_North,  !- Outside Boundary Condition Object
    NoSun,                   !- Sun Exposure
    NoWind,                  !- Wind Exposure
    ,                        !- View Factor to Ground
    ,                        !- Number of Vertices
    45.3375,28.7006,11.8872,  !- X,Y,Z ==> Vertex 1 {m}
    45.3375,28.7006,7.9248,  !- X,Y,Z ==> Vertex 2 {m}
    49.911,33.2738,7.9248,  !- X,Y,Z ==> Vertex 3 {m}
    49.911,33.2738,11.8872;  !- X,Y,Z ==> Vertex 4 {m}

  BuildingSurface:Detailed,
    Perimeter_top_ZN_3_Wall_North,  !- Name
    Wall,                    !- Surface Type
    Exterior Wall,           !- Construction Name
    Perimeter_top_ZN_3 Thermal Zone,  !- Zone Name
    ,                        !- Space Name
    Outdoors,                !- Outside Boundary Condition
    ,                        !- Outside Boundary Condition Object
    SunExposed,              !- Sun Exposure
    WindExposed,             !- Wind Exposure
    ,                        !- View Factor to Ground
    ,                        !- Number of Vertices
    49.911,33.2738,11.8872,  !- X,Y,Z ==> Vertex 1 {m}
    49.911,33.2738,7.9248,  !- X,Y,Z ==> Vertex 2 {m}
    0,33.2738,7.9248,  !- X,Y,Z ==> Vertex 3 {m}
    0,33.2738,11.8872;  !- X,Y,Z ==> Vertex 4 {m}

  BuildingSurface:Detailed,
    Perimeter_top_ZN_3_Wall_South,  !- Name
    Wall,                    !- Surface Type
    Interior Wall,           !- Construction Name
    Perimeter_top_ZN_3 Thermal Zone,  !- Zone Name
    ,                        !- Space Name
    Surface,                 !- Outside Boundary Condition
    Core_top_ZN_5_Wall_North,!- Outside Boundary Condition Object
    NoSun,                   !- Sun Exposure
    NoWind,                  !- Wind Exposure
    ,                        !- View Factor to Ground
    ,                        !- Number of Vertices
    4.5732,28.7006,11.8872,  !- X,Y,Z ==> Vertex 1 {m}
    4.5732,28.7006,7.9248,  !- X,Y,Z ==> Vertex 2 {m}
    45.3375,28.7006,7.9248,  !- X,Y,Z ==> Vertex 3 {m}
    45.3375,28.7006,11.8872;  !- X,Y,Z ==> Vertex 4 {m}

  BuildingSurface:Detailed,
    Perimeter_top_ZN_3_Wall_West,  !- Name
    Wall,                    !- Surface Type
    Interior Wall,           !- Construction Name
    Perimeter_top_ZN_3 Thermal Zone,  !- Zone Name
    ,                        !- Space Name
    Surface,                 !- Outside Boundary Condition
    Perimeter_top_ZN_4_Wall_North,  !- Outside Boundary Condition Object
    NoSun,                   !- Sun Exposure
    NoWind,                  !- Wind Exposure
    ,                        !- View Factor to Ground
    ,                        !- Number of Vertices
    0,33.2738,11.8872,  !- X,Y,Z ==> Vertex 1 {m}
    0,33.2738,7.9248,  !- X,Y,Z ==> Vertex 2 {m}
    4.5732,28.7006,7.9248,  !- X,Y,Z ==> Vertex 3 {m}
    4.5732,28.7006,11.8872;  !- X,Y,Z ==> Vertex 4 {m}

  BuildingSurface:Detailed,
    Perimeter_top_ZN_4_Ceiling,  !- Name
    Roof,                    !- Surface Type
    Exterior Roof,           !- Construction Name
    Perimeter_top_ZN_4 Thermal Zone,  !- Zone Name
    ,                        !- Space Name
    Outdoors,                !- Outside Boundary Condition
    ,                        !- Outside Boundary Condition Object
    SunExposed,              !- Sun Exposure
    WindExposed,             !- Wind Exposure
    ,                        !- View Factor to Ground
    ,                        !- Number of Vertices
    0,0,11.8872,  !- X,Y,Z ==> Vertex 1 {m}
    4.5732,4.5732,11.8872,  !- X,Y,Z ==> Vertex 2 {m}
    4.5732,28.7006,11.8872,  !- X,Y,Z ==> Vertex 3 {m}
    0,33.2738,11.8872;  !- X,Y,Z ==> Vertex 4 {m}

  BuildingSurface:Detailed,
    Perimeter_top_ZN_4_Floor,!- Name
    Floor,                   !- Surface Type
    Interior Floor,          !- Construction Name
    Perimeter_top_ZN_4 Thermal Zone,  !- Zone Name
    ,                        !- Space Name
    Surface,                 !- Outside Boundary Condition
    Perimeter_mid_ZN_4_Ceiling,  !- Outside Boundary Condition Object
    NoSun,                   !- Sun Exposure
    NoWind,                  !- Wind Exposure
    ,                        !- View Factor to Ground
    ,                        !- Number of Vertices
    0,33.2738,7.9248,  !- X,Y,Z ==> Vertex 1 {m}
    4.5732,28.7006,7.9248,  !- X,Y,Z ==> Vertex 2 {m}
    4.5732,4.5732,7.9248,  !- X,Y,Z ==> Vertex 3 {m}
    0,0,7.9248;  !- X,Y,Z ==> Vertex 4 {m}

  BuildingSurface:Detailed,
    Perimeter_top_ZN_4_Wall_East,  !- Name
    Wall,                    !- Surface Type
    Interior Wall,           !- Construction Name
    Perimeter_top_ZN_4 Thermal Zone,  !- Zone Name
    ,                        !- Space Name
    Surface,                 !- Outside Boundary Condition
    Core_top_ZN_5_Wall_West, !- Outside Boundary Condition Object
    NoSun,                   !- Sun Exposure
    NoWind,                  !- Wind Exposure
    ,                        !- View Factor to Ground
    ,                        !- Number of Vertices
    4.5732,4.5732,11.8872,  !- X,Y,Z ==> Vertex 1 {m}
    4.5732,4.5732,7.9248,  !- X,Y,Z ==> Vertex 2 {m}
    4.5732,28.7006,7.9248,  !- X,Y,Z ==> Vertex 3 {m}
    4.5732,28.7006,11.8872;  !- X,Y,Z ==> Vertex 4 {m}

  BuildingSurface:Detailed,
    Perimeter_top_ZN_4_Wall_North,  !- Name
    Wall,                    !- Surface Type
    Interior Wall,           !- Construction Name
    Perimeter_top_ZN_4 Thermal Zone,  !- Zone Name
    ,                        !- Space Name
    Surface,                 !- Outside Boundary Condition
    Perimeter_top_ZN_3_Wall_West,  !- Outside Boundary Condition Object
    NoSun,                   !- Sun Exposure
    NoWind,                  !- Wind Exposure
    ,                        !- View Factor to Ground
    ,                        !- Number of Vertices
    4.5732,28.7006,11.8872,  !- X,Y,Z ==> Vertex 1 {m}
    4.5732,28.7006,7.9248,  !- X,Y,Z ==> Vertex 2 {m}
    0,33.2738,7.9248,  !- X,Y,Z ==> Vertex 3 {m}
    0,33.2738,11.8872;  !- X,Y,Z ==> Vertex 4 {m}

  BuildingSurface:Detailed,
    Perimeter_top_ZN_4_Wall_South,  !- Name
    Wall,                    !- Surface Type
    Interior Wall,           !- Construction Name
    Perimeter_top_ZN_4 Thermal Zone,  !- Zone Name
    ,                        !- Space Name
    Surface,                 !- Outside Boundary Condition
    Perimeter_top_ZN_1_Wall_West,  !- Outside Boundary Condition Object
    NoSun,                   !- Sun Exposure
    NoWind,                  !- Wind Exposure
    ,                        !- View Factor to Ground
    ,                        !- Number of Vertices
    0,0,11.8872,  !- X,Y,Z ==> Vertex 1 {m}
    0,0,7.9248,  !- X,Y,Z ==> Vertex 2 {m}
    4.5732,4.5732,7.9248,  !- X,Y,Z ==> Vertex 3 {m}
    4.5732,4.5732,11.8872;  !- X,Y,Z ==> Vertex 4 {m}

  BuildingSurface:Detailed,
    Perimeter_top_ZN_4_Wall_West,  !- Name
    Wall,                    !- Surface Type
    Exterior Wall,           !- Construction Name
    Perimeter_top_ZN_4 Thermal Zone,  !- Zone Name
    ,                        !- Space Name
    Outdoors,                !- Outside Boundary Condition
    ,                        !- Outside Boundary Condition Object
    SunExposed,              !- Sun Exposure
    WindExposed,             !- Wind Exposure
    ,                        !- View Factor to Ground
    ,                        !- Number of Vertices
    0,33.2738,11.8872,  !- X,Y,Z ==> Vertex 1 {m}
    0,33.2738,7.9248,  !- X,Y,Z ==> Vertex 2 {m}
    0,0,7.9248,  !- X,Y,Z ==> Vertex 3 {m}
    0,0,11.8872;  !- X,Y,Z ==> Vertex 4 {m}

  FenestrationSurface:Detailed,
    Perimeter_bot_ZN_1_Wall_South_Window,  !- Name
    Window,                  !- Surface Type
    Exterior Window,         !- Construction Name
    Perimeter_bot_ZN_1_Wall_South,  !- Building Surface Name
    ,                        !- Outside Boundary Condition Object
    ,                        !- View Factor to Ground
    ,                        !- Frame and Divider Name
    1,                       !- Multiplier
    ,                        !- Number of Vertices
    0,0,2.3293,  !- X,Y,Z ==> Vertex 1 {m}
    0,0,1.0213,  !- X,Y,Z ==> Vertex 2 {m}
    49.91,0,1.0213,  !- X,Y,Z ==> Vertex 3 {m}
    49.91,0,2.3293;  !- X,Y,Z ==> Vertex 4 {m}

  FenestrationSurface:Detailed,
    Perimeter_bot_ZN_2_Wall_East_Window,  !- Name
    Window,                  !- Surface Type
    Exterior Window,         !- Construction Name
    Perimeter_bot_ZN_2_Wall_East,  !- Building Surface Name
    ,                        !- Outside Boundary Condition Object
    ,                        !- View Factor to Ground
    ,                        !- Frame and Divider Name
    1,                       !- Multiplier
    ,                        !- Number of Vertices
    49.911,0,2.3293,  !- X,Y,Z ==> Vertex 1 {m}
    49.911,0,1.0213,  !- X,Y,Z ==> Vertex 2 {m}
    49.911,33.2737,1.0213,  !- X,Y,Z ==> Vertex 3 {m}
    49.911,33.2737,2.3293;  !- X,Y,Z ==> Vertex 4 {m}

  FenestrationSurface:Detailed,
    Perimeter_bot_ZN_3_Wall_North_Window,  !- Name
    Window,                  !- Surface Type
    Exterior Window,         !- Construction Name
    Perimeter_bot_ZN_3_Wall_North,  !- Building Surface Name
    ,                        !- Outside Boundary Condition Object
    ,                        !- View Factor to Ground
    ,                        !- Frame and Divider Name
    1,                       !- Multiplier
    ,                        !- Number of Vertices
    49.91,33.2738,2.3293,  !- X,Y,Z ==> Vertex 1 {m}
    49.91,33.2738,1.0213,  !- X,Y,Z ==> Vertex 2 {m}
    0,33.2738,1.0213,  !- X,Y,Z ==> Vertex 3 {m}
    0,33.2738,2.3293;  !- X,Y,Z ==> Vertex 4 {m}

  FenestrationSurface:Detailed,
    Perimeter_bot_ZN_4_Wall_West_Window,  !- Name
    Window,                  !- Surface Type
    Exterior Window,         !- Construction Name
    Perimeter_bot_ZN_4_Wall_West,  !- Building Surface Name
    ,                        !- Outside Boundary Condition Object
    ,                        !- View Factor to Ground
    ,                        !- Frame and Divider Name
    1,                       !- Multiplier
    ,                        !- Number of Vertices
    0,33.2737,2.3293,  !- X,Y,Z ==> Vertex 1 {m}
    0,33.2737,1.0213,  !- X,Y,Z ==> Vertex 2 {m}
    0,0,1.0213,  !- X,Y,Z ==> Vertex 3 {m}
    0,0,2.3293;  !- X,Y,Z ==> Vertex 4 {m}

  FenestrationSurface:Detailed,
    Perimeter_mid_ZN_1_Wall_South_Window,  !- Name
    Window,                  !- Surface Type
    Exterior Window,         !- Construction Name
    Perimeter_mid_ZN_1_Wall_South,  !- Building Surface Name
    ,                        !- Outside Boundary Condition Object
    ,                        !- View Factor to Ground
    ,                        !- Frame and Divider Name
    1,                       !- Multiplier
    ,                        !- Number of Vertices
    0,0,6.2917,  !- X,Y,Z ==> Vertex 1 {m}
    0,0,4.9837,  !- X,Y,Z ==> Vertex 2 {m}
    49.91,0,4.9837,  !- X,Y,Z ==> Vertex 3 {m}
    49.91,0,6.2917;  !- X,Y,Z ==> Vertex 4 {m}

  FenestrationSurface:Detailed,
    Perimeter_mid_ZN_2_Wall_East_Window,  !- Name
    Window,                  !- Surface Type
    Exterior Window,         !- Construction Name
    Perimeter_mid_ZN_2_Wall_East,  !- Building Surface Name
    ,                        !- Outside Boundary Condition Object
    ,                        !- View Factor to Ground
    ,                        !- Frame and Divider Name
    1,                       !- Multiplier
    ,                        !- Number of Vertices
    49.911,0,6.2917,  !- X,Y,Z ==> Vertex 1 {m}
    49.911,0,4.9837,  !- X,Y,Z ==> Vertex 2 {m}
    49.911,33.2737,4.9837,  !- X,Y,Z ==> Vertex 3 {m}
    49.911,33.2737,6.2917;  !- X,Y,Z ==> Vertex 4 {m}

  FenestrationSurface:Detailed,
    Perimeter_mid_ZN_3_Wall_North_Window,  !- Name
    Window,                  !- Surface Type
    Exterior Window,         !- Construction Name
    Perimeter_mid_ZN_3_Wall_North,  !- Building Surface Name
    ,                        !- Outside Boundary Condition Object
    ,                        !- View Factor to Ground
    ,                        !- Frame and Divider Name
    1,                       !- Multiplier
    ,                        !- Number of Vertices
    49.91,33.2738,6.2917,  !- X,Y,Z ==> Vertex 1 {m}
    49.91,33.2738,4.9837,  !- X,Y,Z ==> Vertex 2 {m}
    0,33.2738,4.9837,  !- X,Y,Z ==> Vertex 3 {m}
    0,33.2738,6.2917;  !- X,Y,Z ==> Vertex 4 {m}

  FenestrationSurface:Detailed,
    Perimeter_mid_ZN_4_Wall_West_Window,  !- Name
    Window,                  !- Surface Type
    Exterior Window,         !- Construction Name
    Perimeter_mid_ZN_4_Wall_West,  !- Building Surface Name
    ,                        !- Outside Boundary Condition Object
    ,                        !- View Factor to Ground
    ,                        !- Frame and Divider Name
    1,                       !- Multiplier
    ,                        !- Number of Vertices
    0,33.2737,6.2917,  !- X,Y,Z ==> Vertex 1 {m}
    0,33.2737,4.9837,  !- X,Y,Z ==> Vertex 2 {m}
    0,0,4.9837,  !- X,Y,Z ==> Vertex 3 {m}
    0,0,6.2917;  !- X,Y,Z ==> Vertex 4 {m}

  FenestrationSurface:Detailed,
    Perimeter_top_ZN_1_Wall_South_Window,  !- Name
    Window,                  !- Surface Type
    Exterior Window,         !- Construction Name
    Perimeter_top_ZN_1_Wall_South,  !- Building Surface Name
    ,                        !- Outside Boundary Condition Object
    ,                        !- View Factor to Ground
    ,                        !- Frame and Divider Name
    1,                       !- Multiplier
    ,                        !- Number of Vertices
    0,0,10.2541,  !- X,Y,Z ==> Vertex 1 {m}
    0,0,8.9461,  !- X,Y,Z ==> Vertex 2 {m}
    49.91,0,8.9461,  !- X,Y,Z ==> Vertex 3 {m}
    49.91,0,10.2541;  !- X,Y,Z ==> Vertex 4 {m}

  FenestrationSurface:Detailed,
    Perimeter_top_ZN_2_Wall_East_Window,  !- Name
    Window,                  !- Surface Type
    Exterior Window,         !- Construction Name
    Perimeter_top_ZN_2_Wall_East,  !- Building Surface Name
    ,                        !- Outside Boundary Condition Object
    ,                        !- View Factor to Ground
    ,                        !- Frame and Divider Name
    1,                       !- Multiplier
    ,                        !- Number of Vertices
    49.911,0,10.2541,  !- X,Y,Z ==> Vertex 1 {m}
    49.911,0,8.9461,  !- X,Y,Z ==> Vertex 2 {m}
    49.911,33.2737,8.9461,  !- X,Y,Z ==> Vertex 3 {m}
    49.911,33.2737,10.2541;  !- X,Y,Z ==> Vertex 4 {m}

  FenestrationSurface:Detailed,
    Perimeter_top_ZN_3_Wall_North_Window,  !- Name
    Window,                  !- Surface Type
    Exterior Window,         !- Construction Name
    Perimeter_top_ZN_3_Wall_North,  !- Building Surface Name
    ,                        !- Outside Boundary Condition Object
    ,                        !- View Factor to Ground
    ,                        !- Frame and Divider Name
    1,                       !- Multiplier
    ,                        !- Number of Vertices
    49.91,33.2738,10.2541,  !- X,Y,Z ==> Vertex 1 {m}
    49.91,33.2738,8.9461,  !- X,Y,Z ==> Vertex 2 {m}
    0,33.2738,8.9461,  !- X,Y,Z ==> Vertex 3 {m}
    0,33.2738,10.2541;  !- X,Y,Z ==> Vertex 4 {m}

  FenestrationSurface:Detailed,
    Perimeter_top_ZN_4_Wall_West_Window,  !- Name
    Window,                  !- Surface Type
    Exterior Window,         !- Construction Name
    Perimeter_top_ZN_4_Wall_West,  !- Building Surface Name
    ,                        !- Outside Boundary Condition Object
    ,                        !- View Factor to Ground
    ,                        !- Frame and Divider Name
    1,                       !- Multiplier
    ,                        !- Number of Vertices
    0,33.2737,10.2541,  !- X,Y,Z ==> Vertex 1 {m}
    0,33.2737,8.9461,  !- X,Y,Z ==> Vertex 2 {m}
    0,0,8.9461,  !- X,Y,Z ==> Vertex 3 {m}
    0,0,10.2541;  !- X,Y,Z ==> Vertex 4 {m}

  PEOPLE,
    Office WholeBuilding - Md Office Occupancy,  !- Name
    Office WholeBuilding - Md Office,  !- Zone or ZoneList or Space or SpaceList Name
    NECB A Occupancy,        !- Number of People Schedule Name
    Area/Person,             !- Number of People Calculation Method
    ,                        !- Number of People
    ,                        !- People per Floor Area {person/m2}
     26.0,                      !- Floor Area per Person {m2/person}
    0.3,                     !- Fraction Radiant
    autocalculate,           !- Sensible Heat Fraction
    Activity Schedule,       !- Activity Level Schedule Name
    3.82e-08,                !- Carbon Dioxide Generation Rate {m3/s-W}
    No,                      !- Enable ASHRAE 55 Comfort Warnings
    EnclosureAveraged,       !- Mean Radiant Temperature Calculation Type
    ,                        !- Surface Name/Angle Factor List Name
    Work Efficiency Schedule,!- Work Efficiency Schedule Name
    DynamicClothingModelASHRAE55,  !- Clothing Insulation Calculation Method
    ,                        !- Clothing Insulation Calculation Method Schedule Name
    ,                        !- Clothing Insulation Schedule Name
    Air Velocity Schedule,   !- Air Velocity Schedule Name
    AdaptiveASH55;           !- Thermal Comfort Model 1 Type

  LIGHTS,
    Office WholeBuilding - Md Office Lighting,  !- Name
    Office WholeBuilding - Md Office,  !- Zone or ZoneList or Space or SpaceList Name
    NECB A Lighting,         !- Schedule Name
    Watts/Area,              !- Design Level Calculation Method
    ,                        !- Lighting Level {W}
    25.05,                      !- Watts per Floor Area {W/m2}
    ,                        !- Watts per Person {W/person}
    0.5,                     !- Return Air Fraction
    0.2,                     !- Fraction Radiant
    0,                       !- Fraction Visible
    1,                       !- Fraction Replaceable
    Lights,                  !- End-Use Subcategory
    No,                      !- Return Air Fraction Calculated from Plenum Temperature
    0,                       !- Return Air Fraction Function of Plenum Temperature Coefficient 1
    0;                       !- Return Air Fraction Function of Plenum Temperature Coefficient 2 {1/K}

  ELECTRICEQUIPMENT,
    Office WholeBuilding - Md Office Plug Load,  !- Name
    Office WholeBuilding - Md Office,  !- Zone or ZoneList or Space or SpaceList Name
    NECB A Receptacle,       !- Schedule Name
    Watts/Area,              !- Design Level Calculation Method
    ,                        !- Design Level {W}
    25.05,                     !- Watts per Floor Area {W/m2}
    ,                        !- Watts per Person {W/person}
    0,                       !- Fraction Latent
    0.5,                     !- Fraction Radiant
    0,                       !- Fraction Lost
    Plug Loads;              !- End-Use Subcategory

  Daylighting:Controls,
    Perimeter_bot_ZN_1 Thermal Zone DaylightingControls,  !- Name
    Perimeter_bot_ZN_1 Thermal Zone,  !- Zone or Space Name
    ,                        !- Daylighting Method
    ,                        !- Availability Schedule Name
    Continuous,              !- Lighting Control Type
    ,                        !- Minimum Input Power Fraction for Continuous or ContinuousOff Dimming Control
    ,                        !- Minimum Light Output Fraction for Continuous or ContinuousOff Dimming Control
    ,                        !- Number of Stepped Control Steps
    ,                        !- Probability Lighting will be Reset When Needed in Manual Stepped Control
    Daylighting Control 11,  !- Glare Calculation Daylighting Reference Point Name
    180,                     !- Glare Calculation Azimuth Angle of View Direction Clockwise from Zone y-Axis {deg}
    ,                        !- Maximum Allowable Discomfort Glare Index
    ,                        !- DElight Gridding Resolution {m2}
    Daylighting Control 11,  !- Daylighting Reference Point 1 Name
    1,                       !- Fraction of Lights Controlled by Reference Point 1
    500;                     !- Illuminance Setpoint at Reference Point 1 {lux}

  Daylighting:Controls,
    Perimeter_bot_ZN_2 Thermal Zone DaylightingControls,  !- Name
    Perimeter_bot_ZN_2 Thermal Zone,  !- Zone or Space Name
    ,                        !- Daylighting Method
    ,                        !- Availability Schedule Name
    Continuous,              !- Lighting Control Type
    ,                        !- Minimum Input Power Fraction for Continuous or ContinuousOff Dimming Control
    ,                        !- Minimum Light Output Fraction for Continuous or ContinuousOff Dimming Control
    ,                        !- Number of Stepped Control Steps
    ,                        !- Probability Lighting will be Reset When Needed in Manual Stepped Control
    Daylighting Control 12,  !- Glare Calculation Daylighting Reference Point Name
    270,                     !- Glare Calculation Azimuth Angle of View Direction Clockwise from Zone y-Axis {deg}
    ,                        !- Maximum Allowable Discomfort Glare Index
    ,                        !- DElight Gridding Resolution {m2}
    Daylighting Control 12,  !- Daylighting Reference Point 1 Name
    1,                       !- Fraction of Lights Controlled by Reference Point 1
    500;                     !- Illuminance Setpoint at Reference Point 1 {lux}

  Daylighting:Controls,
    Perimeter_bot_ZN_3 Thermal Zone DaylightingControls,  !- Name
    Perimeter_bot_ZN_3 Thermal Zone,  !- Zone or Space Name
    ,                        !- Daylighting Method
    ,                        !- Availability Schedule Name
    Continuous,              !- Lighting Control Type
    ,                        !- Minimum Input Power Fraction for Continuous or ContinuousOff Dimming Control
    ,                        !- Minimum Light Output Fraction for Continuous or ContinuousOff Dimming Control
    ,                        !- Number of Stepped Control Steps
    ,                        !- Probability Lighting will be Reset When Needed in Manual Stepped Control
    Daylighting Control 9,   !- Glare Calculation Daylighting Reference Point Name
    0,                       !- Glare Calculation Azimuth Angle of View Direction Clockwise from Zone y-Axis {deg}
    ,                        !- Maximum Allowable Discomfort Glare Index
    ,                        !- DElight Gridding Resolution {m2}
    Daylighting Control 9,   !- Daylighting Reference Point 1 Name
    1,                       !- Fraction of Lights Controlled by Reference Point 1
    500;                     !- Illuminance Setpoint at Reference Point 1 {lux}

  Daylighting:Controls,
    Perimeter_bot_ZN_4 Thermal Zone DaylightingControls,  !- Name
    Perimeter_bot_ZN_4 Thermal Zone,  !- Zone or Space Name
    ,                        !- Daylighting Method
    ,                        !- Availability Schedule Name
    Continuous,              !- Lighting Control Type
    ,                        !- Minimum Input Power Fraction for Continuous or ContinuousOff Dimming Control
    ,                        !- Minimum Light Output Fraction for Continuous or ContinuousOff Dimming Control
    ,                        !- Number of Stepped Control Steps
    ,                        !- Probability Lighting will be Reset When Needed in Manual Stepped Control
    Daylighting Control 10,  !- Glare Calculation Daylighting Reference Point Name
    90,                      !- Glare Calculation Azimuth Angle of View Direction Clockwise from Zone y-Axis {deg}
    ,                        !- Maximum Allowable Discomfort Glare Index
    ,                        !- DElight Gridding Resolution {m2}
    Daylighting Control 10,  !- Daylighting Reference Point 1 Name
    1,                       !- Fraction of Lights Controlled by Reference Point 1
    500;                     !- Illuminance Setpoint at Reference Point 1 {lux}

  Daylighting:Controls,
    Perimeter_mid_ZN_1 Thermal Zone DaylightingControls,  !- Name
    Perimeter_mid_ZN_1 Thermal Zone,  !- Zone or Space Name
    ,                        !- Daylighting Method
    ,                        !- Availability Schedule Name
    Continuous,              !- Lighting Control Type
    ,                        !- Minimum Input Power Fraction for Continuous or ContinuousOff Dimming Control
    ,                        !- Minimum Light Output Fraction for Continuous or ContinuousOff Dimming Control
    ,                        !- Number of Stepped Control Steps
    ,                        !- Probability Lighting will be Reset When Needed in Manual Stepped Control
    Daylighting Control 4,   !- Glare Calculation Daylighting Reference Point Name
    180,                     !- Glare Calculation Azimuth Angle of View Direction Clockwise from Zone y-Axis {deg}
    ,                        !- Maximum Allowable Discomfort Glare Index
    ,                        !- DElight Gridding Resolution {m2}
    Daylighting Control 4,   !- Daylighting Reference Point 1 Name
    1,                       !- Fraction of Lights Controlled by Reference Point 1
    500;                     !- Illuminance Setpoint at Reference Point 1 {lux}

  Daylighting:Controls,
    Perimeter_mid_ZN_2 Thermal Zone DaylightingControls,  !- Name
    Perimeter_mid_ZN_2 Thermal Zone,  !- Zone or Space Name
    ,                        !- Daylighting Method
    ,                        !- Availability Schedule Name
    Continuous,              !- Lighting Control Type
    ,                        !- Minimum Input Power Fraction for Continuous or ContinuousOff Dimming Control
    ,                        !- Minimum Light Output Fraction for Continuous or ContinuousOff Dimming Control
    ,                        !- Number of Stepped Control Steps
    ,                        !- Probability Lighting will be Reset When Needed in Manual Stepped Control
    Daylighting Control 6,   !- Glare Calculation Daylighting Reference Point Name
    270,                     !- Glare Calculation Azimuth Angle of View Direction Clockwise from Zone y-Axis {deg}
    ,                        !- Maximum Allowable Discomfort Glare Index
    ,                        !- DElight Gridding Resolution {m2}
    Daylighting Control 6,   !- Daylighting Reference Point 1 Name
    1,                       !- Fraction of Lights Controlled by Reference Point 1
    500;                     !- Illuminance Setpoint at Reference Point 1 {lux}

  Daylighting:Controls,
    Perimeter_mid_ZN_3 Thermal Zone DaylightingControls,  !- Name
    Perimeter_mid_ZN_3 Thermal Zone,  !- Zone or Space Name
    ,                        !- Daylighting Method
    ,                        !- Availability Schedule Name
    Continuous,              !- Lighting Control Type
    ,                        !- Minimum Input Power Fraction for Continuous or ContinuousOff Dimming Control
    ,                        !- Minimum Light Output Fraction for Continuous or ContinuousOff Dimming Control
    ,                        !- Number of Stepped Control Steps
    ,                        !- Probability Lighting will be Reset When Needed in Manual Stepped Control
    Daylighting Control 8,   !- Glare Calculation Daylighting Reference Point Name
    0,                       !- Glare Calculation Azimuth Angle of View Direction Clockwise from Zone y-Axis {deg}
    ,                        !- Maximum Allowable Discomfort Glare Index
    ,                        !- DElight Gridding Resolution {m2}
    Daylighting Control 8,   !- Daylighting Reference Point 1 Name
    1,                       !- Fraction of Lights Controlled by Reference Point 1
    500;                     !- Illuminance Setpoint at Reference Point 1 {lux}

  Daylighting:Controls,
    Perimeter_mid_ZN_4 Thermal Zone DaylightingControls,  !- Name
    Perimeter_mid_ZN_4 Thermal Zone,  !- Zone or Space Name
    ,                        !- Daylighting Method
    ,                        !- Availability Schedule Name
    Continuous,              !- Lighting Control Type
    ,                        !- Minimum Input Power Fraction for Continuous or ContinuousOff Dimming Control
    ,                        !- Minimum Light Output Fraction for Continuous or ContinuousOff Dimming Control
    ,                        !- Number of Stepped Control Steps
    ,                        !- Probability Lighting will be Reset When Needed in Manual Stepped Control
    Daylighting Control 7,   !- Glare Calculation Daylighting Reference Point Name
    90,                      !- Glare Calculation Azimuth Angle of View Direction Clockwise from Zone y-Axis {deg}
    ,                        !- Maximum Allowable Discomfort Glare Index
    ,                        !- DElight Gridding Resolution {m2}
    Daylighting Control 7,   !- Daylighting Reference Point 1 Name
    1,                       !- Fraction of Lights Controlled by Reference Point 1
    500;                     !- Illuminance Setpoint at Reference Point 1 {lux}

  Daylighting:Controls,
    Perimeter_top_ZN_1 Thermal Zone DaylightingControls,  !- Name
    Perimeter_top_ZN_1 Thermal Zone,  !- Zone or Space Name
    ,                        !- Daylighting Method
    ,                        !- Availability Schedule Name
    Continuous,              !- Lighting Control Type
    ,                        !- Minimum Input Power Fraction for Continuous or ContinuousOff Dimming Control
    ,                        !- Minimum Light Output Fraction for Continuous or ContinuousOff Dimming Control
    ,                        !- Number of Stepped Control Steps
    ,                        !- Probability Lighting will be Reset When Needed in Manual Stepped Control
    Daylighting Control 1,   !- Glare Calculation Daylighting Reference Point Name
    180,                     !- Glare Calculation Azimuth Angle of View Direction Clockwise from Zone y-Axis {deg}
    ,                        !- Maximum Allowable Discomfort Glare Index
    ,                        !- DElight Gridding Resolution {m2}
    Daylighting Control 1,   !- Daylighting Reference Point 1 Name
    1,                       !- Fraction of Lights Controlled by Reference Point 1
    500;                     !- Illuminance Setpoint at Reference Point 1 {lux}

  Daylighting:Controls,
    Perimeter_top_ZN_2 Thermal Zone DaylightingControls,  !- Name
    Perimeter_top_ZN_2 Thermal Zone,  !- Zone or Space Name
    ,                        !- Daylighting Method
    ,                        !- Availability Schedule Name
    Continuous,              !- Lighting Control Type
    ,                        !- Minimum Input Power Fraction for Continuous or ContinuousOff Dimming Control
    ,                        !- Minimum Light Output Fraction for Continuous or ContinuousOff Dimming Control
    ,                        !- Number of Stepped Control Steps
    ,                        !- Probability Lighting will be Reset When Needed in Manual Stepped Control
    Daylighting Control 2,   !- Glare Calculation Daylighting Reference Point Name
    270,                     !- Glare Calculation Azimuth Angle of View Direction Clockwise from Zone y-Axis {deg}
    ,                        !- Maximum Allowable Discomfort Glare Index
    ,                        !- DElight Gridding Resolution {m2}
    Daylighting Control 2,   !- Daylighting Reference Point 1 Name
    1,                       !- Fraction of Lights Controlled by Reference Point 1
    500;                     !- Illuminance Setpoint at Reference Point 1 {lux}

  Daylighting:Controls,
    Perimeter_top_ZN_3 Thermal Zone DaylightingControls,  !- Name
    Perimeter_top_ZN_3 Thermal Zone,  !- Zone or Space Name
    ,                        !- Daylighting Method
    ,                        !- Availability Schedule Name
    Continuous,              !- Lighting Control Type
    ,                        !- Minimum Input Power Fraction for Continuous or ContinuousOff Dimming Control
    ,                        !- Minimum Light Output Fraction for Continuous or ContinuousOff Dimming Control
    ,                        !- Number of Stepped Control Steps
    ,                        !- Probability Lighting will be Reset When Needed in Manual Stepped Control
    Daylighting Control 5,   !- Glare Calculation Daylighting Reference Point Name
    0,                       !- Glare Calculation Azimuth Angle of View Direction Clockwise from Zone y-Axis {deg}
    ,                        !- Maximum Allowable Discomfort Glare Index
    ,                        !- DElight Gridding Resolution {m2}
    Daylighting Control 5,   !- Daylighting Reference Point 1 Name
    1,                       !- Fraction of Lights Controlled by Reference Point 1
    500;                     !- Illuminance Setpoint at Reference Point 1 {lux}

  Daylighting:Controls,
    Perimeter_top_ZN_4 Thermal Zone DaylightingControls,  !- Name
    Perimeter_top_ZN_4 Thermal Zone,  !- Zone or Space Name
    ,                        !- Daylighting Method
    ,                        !- Availability Schedule Name
    Continuous,              !- Lighting Control Type
    ,                        !- Minimum Input Power Fraction for Continuous or ContinuousOff Dimming Control
    ,                        !- Minimum Light Output Fraction for Continuous or ContinuousOff Dimming Control
    ,                        !- Number of Stepped Control Steps
    ,                        !- Probability Lighting will be Reset When Needed in Manual Stepped Control
    Daylighting Control 3,   !- Glare Calculation Daylighting Reference Point Name
    90,                      !- Glare Calculation Azimuth Angle of View Direction Clockwise from Zone y-Axis {deg}
    ,                        !- Maximum Allowable Discomfort Glare Index
    ,                        !- DElight Gridding Resolution {m2}
    Daylighting Control 3,   !- Daylighting Reference Point 1 Name
    1,                       !- Fraction of Lights Controlled by Reference Point 1
    500;                     !- Illuminance Setpoint at Reference Point 1 {lux}

  Daylighting:ReferencePoint,
    Daylighting Control 11,  !- Name
    Perimeter_bot_ZN_1 Thermal Zone,  !- Zone or Space Name
    24.9555,                 !- X-Coordinate of Reference Point {m}
    2,                       !- Y-Coordinate of Reference Point {m}
    0.762;                   !- Z-Coordinate of Reference Point {m}

  Daylighting:ReferencePoint,
    Daylighting Control 12,  !- Name
    Perimeter_bot_ZN_2 Thermal Zone,  !- Zone or Space Name
    47.911,                  !- X-Coordinate of Reference Point {m}
    16.6369,                 !- Y-Coordinate of Reference Point {m}
    0.762;                   !- Z-Coordinate of Reference Point {m}

  Daylighting:ReferencePoint,
    Daylighting Control 9,   !- Name
    Perimeter_bot_ZN_3 Thermal Zone,  !- Zone or Space Name
    24.9555,                 !- X-Coordinate of Reference Point {m}
    31.2738,                 !- Y-Coordinate of Reference Point {m}
    0.762;                   !- Z-Coordinate of Reference Point {m}

  Daylighting:ReferencePoint,
    Daylighting Control 10,  !- Name
    Perimeter_bot_ZN_4 Thermal Zone,  !- Zone or Space Name
    2,                       !- X-Coordinate of Reference Point {m}
    16.6369,                 !- Y-Coordinate of Reference Point {m}
    0.762;                   !- Z-Coordinate of Reference Point {m}

  Daylighting:ReferencePoint,
    Daylighting Control 4,   !- Name
    Perimeter_mid_ZN_1 Thermal Zone,  !- Zone or Space Name
    24.9555,                 !- X-Coordinate of Reference Point {m}
    2,                       !- Y-Coordinate of Reference Point {m}
    4.7244;                  !- Z-Coordinate of Reference Point {m}

  Daylighting:ReferencePoint,
    Daylighting Control 6,   !- Name
    Perimeter_mid_ZN_2 Thermal Zone,  !- Zone or Space Name
    47.911,                  !- X-Coordinate of Reference Point {m}
    16.6369,                 !- Y-Coordinate of Reference Point {m}
    4.7244;                  !- Z-Coordinate of Reference Point {m}

  Daylighting:ReferencePoint,
    Daylighting Control 8,   !- Name
    Perimeter_mid_ZN_3 Thermal Zone,  !- Zone or Space Name
    24.9555,                 !- X-Coordinate of Reference Point {m}
    31.2738,                 !- Y-Coordinate of Reference Point {m}
    4.7244;                  !- Z-Coordinate of Reference Point {m}

  Daylighting:ReferencePoint,
    Daylighting Control 7,   !- Name
    Perimeter_mid_ZN_4 Thermal Zone,  !- Zone or Space Name
    2,                       !- X-Coordinate of Reference Point {m}
    16.6369,                 !- Y-Coordinate of Reference Point {m}
    4.7244;                  !- Z-Coordinate of Reference Point {m}

  Daylighting:ReferencePoint,
    Daylighting Control 1,   !- Name
    Perimeter_top_ZN_1 Thermal Zone,  !- Zone or Space Name
    24.9555,                 !- X-Coordinate of Reference Point {m}
    2,                       !- Y-Coordinate of Reference Point {m}
    8.6868;                  !- Z-Coordinate of Reference Point {m}

  Daylighting:ReferencePoint,
    Daylighting Control 2,   !- Name
    Perimeter_top_ZN_2 Thermal Zone,  !- Zone or Space Name
    47.911,                  !- X-Coordinate of Reference Point {m}
    16.6369,                 !- Y-Coordinate of Reference Point {m}
    8.6868;                  !- Z-Coordinate of Reference Point {m}

  Daylighting:ReferencePoint,
    Daylighting Control 5,   !- Name
    Perimeter_top_ZN_3 Thermal Zone,  !- Zone or Space Name
    24.9555,                 !- X-Coordinate of Reference Point {m}
    31.2738,                 !- Y-Coordinate of Reference Point {m}
    8.6868;                  !- Z-Coordinate of Reference Point {m}

  Daylighting:ReferencePoint,
    Daylighting Control 3,   !- Name
    Perimeter_top_ZN_4 Thermal Zone,  !- Zone or Space Name
    2,                       !- X-Coordinate of Reference Point {m}
    16.6369,                 !- Y-Coordinate of Reference Point {m}
    8.6868;                  !- Z-Coordinate of Reference Point {m}

  ZONEINFILTRATION:DESIGNFLOWRATE,
    Inf,                     !- Name
    Perimeter Zones,         !- Zone or ZoneList or Space or SpaceList Name
    Always On Schedule,      !- Schedule Name
    Flow/ExteriorArea,       !- Design Flow Rate Calculation Method
    0,                       !- Design Flow Rate {m3/s}
    0,                       !- Flow Rate per Floor Area {m3/s-m2}
    0.0007574999999999999,                 !- Flow Rate per Exterior Surface Area {m3/s-m2}
    ,                        !- Air Changes per Hour {1/hr}
    1,                       !- Constant Term Coefficient
    0,                       !- Temperature Term Coefficient
    0,                       !- Velocity Term Coefficient
    0;                       !- Velocity Squared Term Coefficient

  DESIGNSPECIFICATION:OUTDOORAIR,
    Office WholeBuilding - Md Office Outdoor Air Flow,  !- Name
    Sum,                     !- Outdoor Air Method
    0.0025,                  !- Outdoor Air Flow per Person {m3/s-person}
    0.0003,                  !- Outdoor Air Flow per Zone Floor Area {m3/s-m2}
    0,                       !- Outdoor Air Flow per Zone {m3/s}
    0,                       !- Outdoor Air Flow Air Changes per Hour {1/hr}
    NECB A Fans;             !- Outdoor Air Schedule Name

  DESIGNSPECIFICATION:ZONEAIRDISTRIBUTION,
    Typical ZAD,             !- Name
    1,                       !- Zone Air Distribution Effectiveness in Cooling Mode {dimensionless}
    1,                       !- Zone Air Distribution Effectiveness in Heating Mode {dimensionless}
    ZAD Schedule,            !- Zone Air Distribution Effectiveness Schedule Name
    0,                       !- Zone Secondary Recirculation Fraction {dimensionless}
    0;                       !- Minimum Zone Ventilation Efficiency {dimensionless}

  SIZING:ZONE,
    Perimeter_mid_ZN_1 Thermal Zone,  !- Zone or ZoneList Name
    SupplyAirTemperature,    !- Zone Cooling Design Supply Air Temperature Input Method
    10,                      !- Zone Cooling Design Supply Air Temperature {C}
    ,                        !- Zone Cooling Design Supply Air Temperature Difference {deltaC}
    SupplyAirTemperature,    !- Zone Heating Design Supply Air Temperature Input Method
    50,                      !- Zone Heating Design Supply Air Temperature {C}
    ,                        !- Zone Heating Design Supply Air Temperature Difference {deltaC}
    0.02,                    !- Zone Cooling Design Supply Air Humidity Ratio {kgWater/kgDryAir}
    0.02,                    !- Zone Heating Design Supply Air Humidity Ratio {kgWater/kgDryAir}
    Office WholeBuilding - Md Office Outdoor Air Flow,  !- Design Specification Outdoor Air Object Name
    ,                        !- Zone Heating Sizing Factor
    1.25,                    !- Zone Cooling Sizing Factor
    DesignDay,               !- Cooling Design Air Flow Method
    0,                       !- Cooling Design Air Flow Rate {m3/s}
    ,                        !- Cooling Minimum Air Flow per Zone Floor Area {m3/s-m2}
    ,                        !- Cooling Minimum Air Flow {m3/s}
    0,                       !- Cooling Minimum Air Flow Fraction
    DesignDay,               !- Heating Design Air Flow Method
    0,                       !- Heating Design Air Flow Rate {m3/s}
    ,                        !- Heating Maximum Air Flow per Zone Floor Area {m3/s-m2}
    ,                        !- Heating Maximum Air Flow {m3/s}
    0,                       !- Heating Maximum Air Flow Fraction
    Typical ZAD,             !- Design Specification Zone Air Distribution Object Name
    ,                        !- Account for Dedicated Outdoor Air System
    ,                        !- Dedicated Outdoor Air System Control Strategy
    ,                        !- Dedicated Outdoor Air Low Setpoint Temperature for Design {C}
    ,                        !- Dedicated Outdoor Air High Setpoint Temperature for Design {C}
    Sensible Load Only No Latent Load,  !- Zone Load Sizing Method
    HumidityRatioDifference, !- Zone Latent Cooling Design Supply Air Humidity Ratio Input Method
    ,                        !- Zone Dehumidification Design Supply Air Humidity Ratio {kgWater/kgDryAir}
    0.005,                   !- Zone Cooling Design Supply Air Humidity Ratio Difference {kgWater/kgDryAir}
    HumidityRatioDifference, !- Zone Latent Heating Design Supply Air Humidity Ratio Input Method
    ,                        !- Zone Humidification Design Supply Air Humidity Ratio {kgWater/kgDryAir}
    0.005;                   !- Zone Humidification Design Supply Air Humidity Ratio Difference {kgWater/kgDryAir}

  SIZING:ZONE,
    Perimeter_top_ZN_3 Thermal Zone,  !- Zone or ZoneList Name
    SupplyAirTemperature,    !- Zone Cooling Design Supply Air Temperature Input Method
    10,                      !- Zone Cooling Design Supply Air Temperature {C}
    ,                        !- Zone Cooling Design Supply Air Temperature Difference {deltaC}
    SupplyAirTemperature,    !- Zone Heating Design Supply Air Temperature Input Method
    50,                      !- Zone Heating Design Supply Air Temperature {C}
    ,                        !- Zone Heating Design Supply Air Temperature Difference {deltaC}
    0.02,                    !- Zone Cooling Design Supply Air Humidity Ratio {kgWater/kgDryAir}
    0.02,                    !- Zone Heating Design Supply Air Humidity Ratio {kgWater/kgDryAir}
    Office WholeBuilding - Md Office Outdoor Air Flow,  !- Design Specification Outdoor Air Object Name
    ,                        !- Zone Heating Sizing Factor
    1.25,                    !- Zone Cooling Sizing Factor
    DesignDay,               !- Cooling Design Air Flow Method
    0,                       !- Cooling Design Air Flow Rate {m3/s}
    ,                        !- Cooling Minimum Air Flow per Zone Floor Area {m3/s-m2}
    ,                        !- Cooling Minimum Air Flow {m3/s}
    0,                       !- Cooling Minimum Air Flow Fraction
    DesignDay,               !- Heating Design Air Flow Method
    0,                       !- Heating Design Air Flow Rate {m3/s}
    ,                        !- Heating Maximum Air Flow per Zone Floor Area {m3/s-m2}
    ,                        !- Heating Maximum Air Flow {m3/s}
    0,                       !- Heating Maximum Air Flow Fraction
    Typical ZAD,             !- Design Specification Zone Air Distribution Object Name
    ,                        !- Account for Dedicated Outdoor Air System
    ,                        !- Dedicated Outdoor Air System Control Strategy
    ,                        !- Dedicated Outdoor Air Low Setpoint Temperature for Design {C}
    ,                        !- Dedicated Outdoor Air High Setpoint Temperature for Design {C}
    Sensible Load Only No Latent Load,  !- Zone Load Sizing Method
    HumidityRatioDifference, !- Zone Latent Cooling Design Supply Air Humidity Ratio Input Method
    ,                        !- Zone Dehumidification Design Supply Air Humidity Ratio {kgWater/kgDryAir}
    0.005,                   !- Zone Cooling Design Supply Air Humidity Ratio Difference {kgWater/kgDryAir}
    HumidityRatioDifference, !- Zone Latent Heating Design Supply Air Humidity Ratio Input Method
    ,                        !- Zone Humidification Design Supply Air Humidity Ratio {kgWater/kgDryAir}
    0.005;                   !- Zone Humidification Design Supply Air Humidity Ratio Difference {kgWater/kgDryAir}

  SIZING:ZONE,
    Perimeter_mid_ZN_3 Thermal Zone,  !- Zone or ZoneList Name
    SupplyAirTemperature,    !- Zone Cooling Design Supply Air Temperature Input Method
    10,                      !- Zone Cooling Design Supply Air Temperature {C}
    ,                        !- Zone Cooling Design Supply Air Temperature Difference {deltaC}
    SupplyAirTemperature,    !- Zone Heating Design Supply Air Temperature Input Method
    50,                      !- Zone Heating Design Supply Air Temperature {C}
    ,                        !- Zone Heating Design Supply Air Temperature Difference {deltaC}
    0.02,                    !- Zone Cooling Design Supply Air Humidity Ratio {kgWater/kgDryAir}
    0.02,                    !- Zone Heating Design Supply Air Humidity Ratio {kgWater/kgDryAir}
    Office WholeBuilding - Md Office Outdoor Air Flow,  !- Design Specification Outdoor Air Object Name
    ,                        !- Zone Heating Sizing Factor
    1.25,                    !- Zone Cooling Sizing Factor
    DesignDay,               !- Cooling Design Air Flow Method
    0,                       !- Cooling Design Air Flow Rate {m3/s}
    ,                        !- Cooling Minimum Air Flow per Zone Floor Area {m3/s-m2}
    ,                        !- Cooling Minimum Air Flow {m3/s}
    0,                       !- Cooling Minimum Air Flow Fraction
    DesignDay,               !- Heating Design Air Flow Method
    0,                       !- Heating Design Air Flow Rate {m3/s}
    ,                        !- Heating Maximum Air Flow per Zone Floor Area {m3/s-m2}
    ,                        !- Heating Maximum Air Flow {m3/s}
    0,                       !- Heating Maximum Air Flow Fraction
    Typical ZAD,             !- Design Specification Zone Air Distribution Object Name
    ,                        !- Account for Dedicated Outdoor Air System
    ,                        !- Dedicated Outdoor Air System Control Strategy
    ,                        !- Dedicated Outdoor Air Low Setpoint Temperature for Design {C}
    ,                        !- Dedicated Outdoor Air High Setpoint Temperature for Design {C}
    Sensible Load Only No Latent Load,  !- Zone Load Sizing Method
    HumidityRatioDifference, !- Zone Latent Cooling Design Supply Air Humidity Ratio Input Method
    ,                        !- Zone Dehumidification Design Supply Air Humidity Ratio {kgWater/kgDryAir}
    0.005,                   !- Zone Cooling Design Supply Air Humidity Ratio Difference {kgWater/kgDryAir}
    HumidityRatioDifference, !- Zone Latent Heating Design Supply Air Humidity Ratio Input Method
    ,                        !- Zone Humidification Design Supply Air Humidity Ratio {kgWater/kgDryAir}
    0.005;                   !- Zone Humidification Design Supply Air Humidity Ratio Difference {kgWater/kgDryAir}

  SIZING:ZONE,
    Perimeter_mid_ZN_2 Thermal Zone,  !- Zone or ZoneList Name
    SupplyAirTemperature,    !- Zone Cooling Design Supply Air Temperature Input Method
    10,                      !- Zone Cooling Design Supply Air Temperature {C}
    ,                        !- Zone Cooling Design Supply Air Temperature Difference {deltaC}
    SupplyAirTemperature,    !- Zone Heating Design Supply Air Temperature Input Method
    50,                      !- Zone Heating Design Supply Air Temperature {C}
    ,                        !- Zone Heating Design Supply Air Temperature Difference {deltaC}
    0.02,                    !- Zone Cooling Design Supply Air Humidity Ratio {kgWater/kgDryAir}
    0.02,                    !- Zone Heating Design Supply Air Humidity Ratio {kgWater/kgDryAir}
    Office WholeBuilding - Md Office Outdoor Air Flow,  !- Design Specification Outdoor Air Object Name
    ,                        !- Zone Heating Sizing Factor
    1.25,                    !- Zone Cooling Sizing Factor
    DesignDay,               !- Cooling Design Air Flow Method
    0,                       !- Cooling Design Air Flow Rate {m3/s}
    ,                        !- Cooling Minimum Air Flow per Zone Floor Area {m3/s-m2}
    ,                        !- Cooling Minimum Air Flow {m3/s}
    0,                       !- Cooling Minimum Air Flow Fraction
    DesignDay,               !- Heating Design Air Flow Method
    0,                       !- Heating Design Air Flow Rate {m3/s}
    ,                        !- Heating Maximum Air Flow per Zone Floor Area {m3/s-m2}
    ,                        !- Heating Maximum Air Flow {m3/s}
    0,                       !- Heating Maximum Air Flow Fraction
    Typical ZAD,             !- Design Specification Zone Air Distribution Object Name
    ,                        !- Account for Dedicated Outdoor Air System
    ,                        !- Dedicated Outdoor Air System Control Strategy
    ,                        !- Dedicated Outdoor Air Low Setpoint Temperature for Design {C}
    ,                        !- Dedicated Outdoor Air High Setpoint Temperature for Design {C}
    Sensible Load Only No Latent Load,  !- Zone Load Sizing Method
    HumidityRatioDifference, !- Zone Latent Cooling Design Supply Air Humidity Ratio Input Method
    ,                        !- Zone Dehumidification Design Supply Air Humidity Ratio {kgWater/kgDryAir}
    0.005,                   !- Zone Cooling Design Supply Air Humidity Ratio Difference {kgWater/kgDryAir}
    HumidityRatioDifference, !- Zone Latent Heating Design Supply Air Humidity Ratio Input Method
    ,                        !- Zone Humidification Design Supply Air Humidity Ratio {kgWater/kgDryAir}
    0.005;                   !- Zone Humidification Design Supply Air Humidity Ratio Difference {kgWater/kgDryAir}

  SIZING:ZONE,
    Core_bottom Thermal Zone,!- Zone or ZoneList Name
    SupplyAirTemperature,    !- Zone Cooling Design Supply Air Temperature Input Method
    10,                      !- Zone Cooling Design Supply Air Temperature {C}
    ,                        !- Zone Cooling Design Supply Air Temperature Difference {deltaC}
    SupplyAirTemperature,    !- Zone Heating Design Supply Air Temperature Input Method
    50,                      !- Zone Heating Design Supply Air Temperature {C}
    ,                        !- Zone Heating Design Supply Air Temperature Difference {deltaC}
    0.02,                    !- Zone Cooling Design Supply Air Humidity Ratio {kgWater/kgDryAir}
    0.02,                    !- Zone Heating Design Supply Air Humidity Ratio {kgWater/kgDryAir}
    Office WholeBuilding - Md Office Outdoor Air Flow,  !- Design Specification Outdoor Air Object Name
    ,                        !- Zone Heating Sizing Factor
    1.25,                    !- Zone Cooling Sizing Factor
    DesignDay,               !- Cooling Design Air Flow Method
    0,                       !- Cooling Design Air Flow Rate {m3/s}
    ,                        !- Cooling Minimum Air Flow per Zone Floor Area {m3/s-m2}
    ,                        !- Cooling Minimum Air Flow {m3/s}
    0,                       !- Cooling Minimum Air Flow Fraction
    DesignDay,               !- Heating Design Air Flow Method
    0,                       !- Heating Design Air Flow Rate {m3/s}
    ,                        !- Heating Maximum Air Flow per Zone Floor Area {m3/s-m2}
    ,                        !- Heating Maximum Air Flow {m3/s}
    0,                       !- Heating Maximum Air Flow Fraction
    Typical ZAD,             !- Design Specification Zone Air Distribution Object Name
    ,                        !- Account for Dedicated Outdoor Air System
    ,                        !- Dedicated Outdoor Air System Control Strategy
    ,                        !- Dedicated Outdoor Air Low Setpoint Temperature for Design {C}
    ,                        !- Dedicated Outdoor Air High Setpoint Temperature for Design {C}
    Sensible Load Only No Latent Load,  !- Zone Load Sizing Method
    HumidityRatioDifference, !- Zone Latent Cooling Design Supply Air Humidity Ratio Input Method
    ,                        !- Zone Dehumidification Design Supply Air Humidity Ratio {kgWater/kgDryAir}
    0.005,                   !- Zone Cooling Design Supply Air Humidity Ratio Difference {kgWater/kgDryAir}
    HumidityRatioDifference, !- Zone Latent Heating Design Supply Air Humidity Ratio Input Method
    ,                        !- Zone Humidification Design Supply Air Humidity Ratio {kgWater/kgDryAir}
    0.005;                   !- Zone Humidification Design Supply Air Humidity Ratio Difference {kgWater/kgDryAir}

  SIZING:ZONE,
    Perimeter_top_ZN_2 Thermal Zone,  !- Zone or ZoneList Name
    SupplyAirTemperature,    !- Zone Cooling Design Supply Air Temperature Input Method
    10,                      !- Zone Cooling Design Supply Air Temperature {C}
    ,                        !- Zone Cooling Design Supply Air Temperature Difference {deltaC}
    SupplyAirTemperature,    !- Zone Heating Design Supply Air Temperature Input Method
    50,                      !- Zone Heating Design Supply Air Temperature {C}
    ,                        !- Zone Heating Design Supply Air Temperature Difference {deltaC}
    0.02,                    !- Zone Cooling Design Supply Air Humidity Ratio {kgWater/kgDryAir}
    0.02,                    !- Zone Heating Design Supply Air Humidity Ratio {kgWater/kgDryAir}
    Office WholeBuilding - Md Office Outdoor Air Flow,  !- Design Specification Outdoor Air Object Name
    ,                        !- Zone Heating Sizing Factor
    1.25,                    !- Zone Cooling Sizing Factor
    DesignDay,               !- Cooling Design Air Flow Method
    0,                       !- Cooling Design Air Flow Rate {m3/s}
    ,                        !- Cooling Minimum Air Flow per Zone Floor Area {m3/s-m2}
    ,                        !- Cooling Minimum Air Flow {m3/s}
    0,                       !- Cooling Minimum Air Flow Fraction
    DesignDay,               !- Heating Design Air Flow Method
    0,                       !- Heating Design Air Flow Rate {m3/s}
    ,                        !- Heating Maximum Air Flow per Zone Floor Area {m3/s-m2}
    ,                        !- Heating Maximum Air Flow {m3/s}
    0,                       !- Heating Maximum Air Flow Fraction
    Typical ZAD,             !- Design Specification Zone Air Distribution Object Name
    ,                        !- Account for Dedicated Outdoor Air System
    ,                        !- Dedicated Outdoor Air System Control Strategy
    ,                        !- Dedicated Outdoor Air Low Setpoint Temperature for Design {C}
    ,                        !- Dedicated Outdoor Air High Setpoint Temperature for Design {C}
    Sensible Load Only No Latent Load,  !- Zone Load Sizing Method
    HumidityRatioDifference, !- Zone Latent Cooling Design Supply Air Humidity Ratio Input Method
    ,                        !- Zone Dehumidification Design Supply Air Humidity Ratio {kgWater/kgDryAir}
    0.005,                   !- Zone Cooling Design Supply Air Humidity Ratio Difference {kgWater/kgDryAir}
    HumidityRatioDifference, !- Zone Latent Heating Design Supply Air Humidity Ratio Input Method
    ,                        !- Zone Humidification Design Supply Air Humidity Ratio {kgWater/kgDryAir}
    0.005;                   !- Zone Humidification Design Supply Air Humidity Ratio Difference {kgWater/kgDryAir}

  SIZING:ZONE,
    Perimeter_top_ZN_4 Thermal Zone,  !- Zone or ZoneList Name
    SupplyAirTemperature,    !- Zone Cooling Design Supply Air Temperature Input Method
    10,                      !- Zone Cooling Design Supply Air Temperature {C}
    ,                        !- Zone Cooling Design Supply Air Temperature Difference {deltaC}
    SupplyAirTemperature,    !- Zone Heating Design Supply Air Temperature Input Method
    50,                      !- Zone Heating Design Supply Air Temperature {C}
    ,                        !- Zone Heating Design Supply Air Temperature Difference {deltaC}
    0.02,                    !- Zone Cooling Design Supply Air Humidity Ratio {kgWater/kgDryAir}
    0.02,                    !- Zone Heating Design Supply Air Humidity Ratio {kgWater/kgDryAir}
    Office WholeBuilding - Md Office Outdoor Air Flow,  !- Design Specification Outdoor Air Object Name
    ,                        !- Zone Heating Sizing Factor
    1.25,                    !- Zone Cooling Sizing Factor
    DesignDay,               !- Cooling Design Air Flow Method
    0,                       !- Cooling Design Air Flow Rate {m3/s}
    ,                        !- Cooling Minimum Air Flow per Zone Floor Area {m3/s-m2}
    ,                        !- Cooling Minimum Air Flow {m3/s}
    0,                       !- Cooling Minimum Air Flow Fraction
    DesignDay,               !- Heating Design Air Flow Method
    0,                       !- Heating Design Air Flow Rate {m3/s}
    ,                        !- Heating Maximum Air Flow per Zone Floor Area {m3/s-m2}
    ,                        !- Heating Maximum Air Flow {m3/s}
    0,                       !- Heating Maximum Air Flow Fraction
    Typical ZAD,             !- Design Specification Zone Air Distribution Object Name
    ,                        !- Account for Dedicated Outdoor Air System
    ,                        !- Dedicated Outdoor Air System Control Strategy
    ,                        !- Dedicated Outdoor Air Low Setpoint Temperature for Design {C}
    ,                        !- Dedicated Outdoor Air High Setpoint Temperature for Design {C}
    Sensible Load Only No Latent Load,  !- Zone Load Sizing Method
    HumidityRatioDifference, !- Zone Latent Cooling Design Supply Air Humidity Ratio Input Method
    ,                        !- Zone Dehumidification Design Supply Air Humidity Ratio {kgWater/kgDryAir}
    0.005,                   !- Zone Cooling Design Supply Air Humidity Ratio Difference {kgWater/kgDryAir}
    HumidityRatioDifference, !- Zone Latent Heating Design Supply Air Humidity Ratio Input Method
    ,                        !- Zone Humidification Design Supply Air Humidity Ratio {kgWater/kgDryAir}
    0.005;                   !- Zone Humidification Design Supply Air Humidity Ratio Difference {kgWater/kgDryAir}

  SIZING:ZONE,
    Perimeter_mid_ZN_4 Thermal Zone,  !- Zone or ZoneList Name
    SupplyAirTemperature,    !- Zone Cooling Design Supply Air Temperature Input Method
    10,                      !- Zone Cooling Design Supply Air Temperature {C}
    ,                        !- Zone Cooling Design Supply Air Temperature Difference {deltaC}
    SupplyAirTemperature,    !- Zone Heating Design Supply Air Temperature Input Method
    50,                      !- Zone Heating Design Supply Air Temperature {C}
    ,                        !- Zone Heating Design Supply Air Temperature Difference {deltaC}
    0.02,                    !- Zone Cooling Design Supply Air Humidity Ratio {kgWater/kgDryAir}
    0.02,                    !- Zone Heating Design Supply Air Humidity Ratio {kgWater/kgDryAir}
    Office WholeBuilding - Md Office Outdoor Air Flow,  !- Design Specification Outdoor Air Object Name
    ,                        !- Zone Heating Sizing Factor
    1.25,                    !- Zone Cooling Sizing Factor
    DesignDay,               !- Cooling Design Air Flow Method
    0,                       !- Cooling Design Air Flow Rate {m3/s}
    ,                        !- Cooling Minimum Air Flow per Zone Floor Area {m3/s-m2}
    ,                        !- Cooling Minimum Air Flow {m3/s}
    0,                       !- Cooling Minimum Air Flow Fraction
    DesignDay,               !- Heating Design Air Flow Method
    0,                       !- Heating Design Air Flow Rate {m3/s}
    ,                        !- Heating Maximum Air Flow per Zone Floor Area {m3/s-m2}
    ,                        !- Heating Maximum Air Flow {m3/s}
    0,                       !- Heating Maximum Air Flow Fraction
    Typical ZAD,             !- Design Specification Zone Air Distribution Object Name
    ,                        !- Account for Dedicated Outdoor Air System
    ,                        !- Dedicated Outdoor Air System Control Strategy
    ,                        !- Dedicated Outdoor Air Low Setpoint Temperature for Design {C}
    ,                        !- Dedicated Outdoor Air High Setpoint Temperature for Design {C}
    Sensible Load Only No Latent Load,  !- Zone Load Sizing Method
    HumidityRatioDifference, !- Zone Latent Cooling Design Supply Air Humidity Ratio Input Method
    ,                        !- Zone Dehumidification Design Supply Air Humidity Ratio {kgWater/kgDryAir}
    0.005,                   !- Zone Cooling Design Supply Air Humidity Ratio Difference {kgWater/kgDryAir}
    HumidityRatioDifference, !- Zone Latent Heating Design Supply Air Humidity Ratio Input Method
    ,                        !- Zone Humidification Design Supply Air Humidity Ratio {kgWater/kgDryAir}
    0.005;                   !- Zone Humidification Design Supply Air Humidity Ratio Difference {kgWater/kgDryAir}

  SIZING:ZONE,
    Core_mid Thermal Zone,   !- Zone or ZoneList Name
    SupplyAirTemperature,    !- Zone Cooling Design Supply Air Temperature Input Method
    10,                      !- Zone Cooling Design Supply Air Temperature {C}
    ,                        !- Zone Cooling Design Supply Air Temperature Difference {deltaC}
    SupplyAirTemperature,    !- Zone Heating Design Supply Air Temperature Input Method
    50,                      !- Zone Heating Design Supply Air Temperature {C}
    ,                        !- Zone Heating Design Supply Air Temperature Difference {deltaC}
    0.02,                    !- Zone Cooling Design Supply Air Humidity Ratio {kgWater/kgDryAir}
    0.02,                    !- Zone Heating Design Supply Air Humidity Ratio {kgWater/kgDryAir}
    Office WholeBuilding - Md Office Outdoor Air Flow,  !- Design Specification Outdoor Air Object Name
    ,                        !- Zone Heating Sizing Factor
    1.25,                    !- Zone Cooling Sizing Factor
    DesignDay,               !- Cooling Design Air Flow Method
    0,                       !- Cooling Design Air Flow Rate {m3/s}
    ,                        !- Cooling Minimum Air Flow per Zone Floor Area {m3/s-m2}
    ,                        !- Cooling Minimum Air Flow {m3/s}
    0,                       !- Cooling Minimum Air Flow Fraction
    DesignDay,               !- Heating Design Air Flow Method
    0,                       !- Heating Design Air Flow Rate {m3/s}
    ,                        !- Heating Maximum Air Flow per Zone Floor Area {m3/s-m2}
    ,                        !- Heating Maximum Air Flow {m3/s}
    0,                       !- Heating Maximum Air Flow Fraction
    Typical ZAD,             !- Design Specification Zone Air Distribution Object Name
    ,                        !- Account for Dedicated Outdoor Air System
    ,                        !- Dedicated Outdoor Air System Control Strategy
    ,                        !- Dedicated Outdoor Air Low Setpoint Temperature for Design {C}
    ,                        !- Dedicated Outdoor Air High Setpoint Temperature for Design {C}
    Sensible Load Only No Latent Load,  !- Zone Load Sizing Method
    HumidityRatioDifference, !- Zone Latent Cooling Design Supply Air Humidity Ratio Input Method
    ,                        !- Zone Dehumidification Design Supply Air Humidity Ratio {kgWater/kgDryAir}
    0.005,                   !- Zone Cooling Design Supply Air Humidity Ratio Difference {kgWater/kgDryAir}
    HumidityRatioDifference, !- Zone Latent Heating Design Supply Air Humidity Ratio Input Method
    ,                        !- Zone Humidification Design Supply Air Humidity Ratio {kgWater/kgDryAir}
    0.005;                   !- Zone Humidification Design Supply Air Humidity Ratio Difference {kgWater/kgDryAir}

  SIZING:ZONE,
    Perimeter_bot_ZN_3 Thermal Zone,  !- Zone or ZoneList Name
    SupplyAirTemperature,    !- Zone Cooling Design Supply Air Temperature Input Method
    10,                      !- Zone Cooling Design Supply Air Temperature {C}
    ,                        !- Zone Cooling Design Supply Air Temperature Difference {deltaC}
    SupplyAirTemperature,    !- Zone Heating Design Supply Air Temperature Input Method
    50,                      !- Zone Heating Design Supply Air Temperature {C}
    ,                        !- Zone Heating Design Supply Air Temperature Difference {deltaC}
    0.02,                    !- Zone Cooling Design Supply Air Humidity Ratio {kgWater/kgDryAir}
    0.02,                    !- Zone Heating Design Supply Air Humidity Ratio {kgWater/kgDryAir}
    Office WholeBuilding - Md Office Outdoor Air Flow,  !- Design Specification Outdoor Air Object Name
    ,                        !- Zone Heating Sizing Factor
    1.25,                    !- Zone Cooling Sizing Factor
    DesignDay,               !- Cooling Design Air Flow Method
    0,                       !- Cooling Design Air Flow Rate {m3/s}
    ,                        !- Cooling Minimum Air Flow per Zone Floor Area {m3/s-m2}
    ,                        !- Cooling Minimum Air Flow {m3/s}
    0,                       !- Cooling Minimum Air Flow Fraction
    DesignDay,               !- Heating Design Air Flow Method
    0,                       !- Heating Design Air Flow Rate {m3/s}
    ,                        !- Heating Maximum Air Flow per Zone Floor Area {m3/s-m2}
    ,                        !- Heating Maximum Air Flow {m3/s}
    0,                       !- Heating Maximum Air Flow Fraction
    Typical ZAD,             !- Design Specification Zone Air Distribution Object Name
    ,                        !- Account for Dedicated Outdoor Air System
    ,                        !- Dedicated Outdoor Air System Control Strategy
    ,                        !- Dedicated Outdoor Air Low Setpoint Temperature for Design {C}
    ,                        !- Dedicated Outdoor Air High Setpoint Temperature for Design {C}
    Sensible Load Only No Latent Load,  !- Zone Load Sizing Method
    HumidityRatioDifference, !- Zone Latent Cooling Design Supply Air Humidity Ratio Input Method
    ,                        !- Zone Dehumidification Design Supply Air Humidity Ratio {kgWater/kgDryAir}
    0.005,                   !- Zone Cooling Design Supply Air Humidity Ratio Difference {kgWater/kgDryAir}
    HumidityRatioDifference, !- Zone Latent Heating Design Supply Air Humidity Ratio Input Method
    ,                        !- Zone Humidification Design Supply Air Humidity Ratio {kgWater/kgDryAir}
    0.005;                   !- Zone Humidification Design Supply Air Humidity Ratio Difference {kgWater/kgDryAir}

  SIZING:ZONE,
    Perimeter_bot_ZN_4 Thermal Zone,  !- Zone or ZoneList Name
    SupplyAirTemperature,    !- Zone Cooling Design Supply Air Temperature Input Method
    10,                      !- Zone Cooling Design Supply Air Temperature {C}
    ,                        !- Zone Cooling Design Supply Air Temperature Difference {deltaC}
    SupplyAirTemperature,    !- Zone Heating Design Supply Air Temperature Input Method
    50,                      !- Zone Heating Design Supply Air Temperature {C}
    ,                        !- Zone Heating Design Supply Air Temperature Difference {deltaC}
    0.02,                    !- Zone Cooling Design Supply Air Humidity Ratio {kgWater/kgDryAir}
    0.02,                    !- Zone Heating Design Supply Air Humidity Ratio {kgWater/kgDryAir}
    Office WholeBuilding - Md Office Outdoor Air Flow,  !- Design Specification Outdoor Air Object Name
    ,                        !- Zone Heating Sizing Factor
    1.25,                    !- Zone Cooling Sizing Factor
    DesignDay,               !- Cooling Design Air Flow Method
    0,                       !- Cooling Design Air Flow Rate {m3/s}
    ,                        !- Cooling Minimum Air Flow per Zone Floor Area {m3/s-m2}
    ,                        !- Cooling Minimum Air Flow {m3/s}
    0,                       !- Cooling Minimum Air Flow Fraction
    DesignDay,               !- Heating Design Air Flow Method
    0,                       !- Heating Design Air Flow Rate {m3/s}
    ,                        !- Heating Maximum Air Flow per Zone Floor Area {m3/s-m2}
    ,                        !- Heating Maximum Air Flow {m3/s}
    0,                       !- Heating Maximum Air Flow Fraction
    Typical ZAD,             !- Design Specification Zone Air Distribution Object Name
    ,                        !- Account for Dedicated Outdoor Air System
    ,                        !- Dedicated Outdoor Air System Control Strategy
    ,                        !- Dedicated Outdoor Air Low Setpoint Temperature for Design {C}
    ,                        !- Dedicated Outdoor Air High Setpoint Temperature for Design {C}
    Sensible Load Only No Latent Load,  !- Zone Load Sizing Method
    HumidityRatioDifference, !- Zone Latent Cooling Design Supply Air Humidity Ratio Input Method
    ,                        !- Zone Dehumidification Design Supply Air Humidity Ratio {kgWater/kgDryAir}
    0.005,                   !- Zone Cooling Design Supply Air Humidity Ratio Difference {kgWater/kgDryAir}
    HumidityRatioDifference, !- Zone Latent Heating Design Supply Air Humidity Ratio Input Method
    ,                        !- Zone Humidification Design Supply Air Humidity Ratio {kgWater/kgDryAir}
    0.005;                   !- Zone Humidification Design Supply Air Humidity Ratio Difference {kgWater/kgDryAir}

  SIZING:ZONE,
    Perimeter_top_ZN_1 Thermal Zone,  !- Zone or ZoneList Name
    SupplyAirTemperature,    !- Zone Cooling Design Supply Air Temperature Input Method
    10,                      !- Zone Cooling Design Supply Air Temperature {C}
    ,                        !- Zone Cooling Design Supply Air Temperature Difference {deltaC}
    SupplyAirTemperature,    !- Zone Heating Design Supply Air Temperature Input Method
    50,                      !- Zone Heating Design Supply Air Temperature {C}
    ,                        !- Zone Heating Design Supply Air Temperature Difference {deltaC}
    0.02,                    !- Zone Cooling Design Supply Air Humidity Ratio {kgWater/kgDryAir}
    0.02,                    !- Zone Heating Design Supply Air Humidity Ratio {kgWater/kgDryAir}
    Office WholeBuilding - Md Office Outdoor Air Flow,  !- Design Specification Outdoor Air Object Name
    ,                        !- Zone Heating Sizing Factor
    1.25,                    !- Zone Cooling Sizing Factor
    DesignDay,               !- Cooling Design Air Flow Method
    0,                       !- Cooling Design Air Flow Rate {m3/s}
    ,                        !- Cooling Minimum Air Flow per Zone Floor Area {m3/s-m2}
    ,                        !- Cooling Minimum Air Flow {m3/s}
    0,                       !- Cooling Minimum Air Flow Fraction
    DesignDay,               !- Heating Design Air Flow Method
    0,                       !- Heating Design Air Flow Rate {m3/s}
    ,                        !- Heating Maximum Air Flow per Zone Floor Area {m3/s-m2}
    ,                        !- Heating Maximum Air Flow {m3/s}
    0,                       !- Heating Maximum Air Flow Fraction
    Typical ZAD,             !- Design Specification Zone Air Distribution Object Name
    ,                        !- Account for Dedicated Outdoor Air System
    ,                        !- Dedicated Outdoor Air System Control Strategy
    ,                        !- Dedicated Outdoor Air Low Setpoint Temperature for Design {C}
    ,                        !- Dedicated Outdoor Air High Setpoint Temperature for Design {C}
    Sensible Load Only No Latent Load,  !- Zone Load Sizing Method
    HumidityRatioDifference, !- Zone Latent Cooling Design Supply Air Humidity Ratio Input Method
    ,                        !- Zone Dehumidification Design Supply Air Humidity Ratio {kgWater/kgDryAir}
    0.005,                   !- Zone Cooling Design Supply Air Humidity Ratio Difference {kgWater/kgDryAir}
    HumidityRatioDifference, !- Zone Latent Heating Design Supply Air Humidity Ratio Input Method
    ,                        !- Zone Humidification Design Supply Air Humidity Ratio {kgWater/kgDryAir}
    0.005;                   !- Zone Humidification Design Supply Air Humidity Ratio Difference {kgWater/kgDryAir}

  SIZING:ZONE,
    Perimeter_bot_ZN_1 Thermal Zone,  !- Zone or ZoneList Name
    SupplyAirTemperature,    !- Zone Cooling Design Supply Air Temperature Input Method
    10,                      !- Zone Cooling Design Supply Air Temperature {C}
    ,                        !- Zone Cooling Design Supply Air Temperature Difference {deltaC}
    SupplyAirTemperature,    !- Zone Heating Design Supply Air Temperature Input Method
    50,                      !- Zone Heating Design Supply Air Temperature {C}
    ,                        !- Zone Heating Design Supply Air Temperature Difference {deltaC}
    0.02,                    !- Zone Cooling Design Supply Air Humidity Ratio {kgWater/kgDryAir}
    0.02,                    !- Zone Heating Design Supply Air Humidity Ratio {kgWater/kgDryAir}
    Office WholeBuilding - Md Office Outdoor Air Flow,  !- Design Specification Outdoor Air Object Name
    ,                        !- Zone Heating Sizing Factor
    1.25,                    !- Zone Cooling Sizing Factor
    DesignDay,               !- Cooling Design Air Flow Method
    0,                       !- Cooling Design Air Flow Rate {m3/s}
    ,                        !- Cooling Minimum Air Flow per Zone Floor Area {m3/s-m2}
    ,                        !- Cooling Minimum Air Flow {m3/s}
    0,                       !- Cooling Minimum Air Flow Fraction
    DesignDay,               !- Heating Design Air Flow Method
    0,                       !- Heating Design Air Flow Rate {m3/s}
    ,                        !- Heating Maximum Air Flow per Zone Floor Area {m3/s-m2}
    ,                        !- Heating Maximum Air Flow {m3/s}
    0,                       !- Heating Maximum Air Flow Fraction
    Typical ZAD,             !- Design Specification Zone Air Distribution Object Name
    ,                        !- Account for Dedicated Outdoor Air System
    ,                        !- Dedicated Outdoor Air System Control Strategy
    ,                        !- Dedicated Outdoor Air Low Setpoint Temperature for Design {C}
    ,                        !- Dedicated Outdoor Air High Setpoint Temperature for Design {C}
    Sensible Load Only No Latent Load,  !- Zone Load Sizing Method
    HumidityRatioDifference, !- Zone Latent Cooling Design Supply Air Humidity Ratio Input Method
    ,                        !- Zone Dehumidification Design Supply Air Humidity Ratio {kgWater/kgDryAir}
    0.005,                   !- Zone Cooling Design Supply Air Humidity Ratio Difference {kgWater/kgDryAir}
    HumidityRatioDifference, !- Zone Latent Heating Design Supply Air Humidity Ratio Input Method
    ,                        !- Zone Humidification Design Supply Air Humidity Ratio {kgWater/kgDryAir}
    0.005;                   !- Zone Humidification Design Supply Air Humidity Ratio Difference {kgWater/kgDryAir}

  SIZING:ZONE,
    Core_top Thermal Zone,   !- Zone or ZoneList Name
    SupplyAirTemperature,    !- Zone Cooling Design Supply Air Temperature Input Method
    10,                      !- Zone Cooling Design Supply Air Temperature {C}
    ,                        !- Zone Cooling Design Supply Air Temperature Difference {deltaC}
    SupplyAirTemperature,    !- Zone Heating Design Supply Air Temperature Input Method
    50,                      !- Zone Heating Design Supply Air Temperature {C}
    ,                        !- Zone Heating Design Supply Air Temperature Difference {deltaC}
    0.02,                    !- Zone Cooling Design Supply Air Humidity Ratio {kgWater/kgDryAir}
    0.02,                    !- Zone Heating Design Supply Air Humidity Ratio {kgWater/kgDryAir}
    Office WholeBuilding - Md Office Outdoor Air Flow,  !- Design Specification Outdoor Air Object Name
    ,                        !- Zone Heating Sizing Factor
    1.25,                    !- Zone Cooling Sizing Factor
    DesignDay,               !- Cooling Design Air Flow Method
    0,                       !- Cooling Design Air Flow Rate {m3/s}
    ,                        !- Cooling Minimum Air Flow per Zone Floor Area {m3/s-m2}
    ,                        !- Cooling Minimum Air Flow {m3/s}
    0,                       !- Cooling Minimum Air Flow Fraction
    DesignDay,               !- Heating Design Air Flow Method
    0,                       !- Heating Design Air Flow Rate {m3/s}
    ,                        !- Heating Maximum Air Flow per Zone Floor Area {m3/s-m2}
    ,                        !- Heating Maximum Air Flow {m3/s}
    0,                       !- Heating Maximum Air Flow Fraction
    Typical ZAD,             !- Design Specification Zone Air Distribution Object Name
    ,                        !- Account for Dedicated Outdoor Air System
    ,                        !- Dedicated Outdoor Air System Control Strategy
    ,                        !- Dedicated Outdoor Air Low Setpoint Temperature for Design {C}
    ,                        !- Dedicated Outdoor Air High Setpoint Temperature for Design {C}
    Sensible Load Only No Latent Load,  !- Zone Load Sizing Method
    HumidityRatioDifference, !- Zone Latent Cooling Design Supply Air Humidity Ratio Input Method
    ,                        !- Zone Dehumidification Design Supply Air Humidity Ratio {kgWater/kgDryAir}
    0.005,                   !- Zone Cooling Design Supply Air Humidity Ratio Difference {kgWater/kgDryAir}
    HumidityRatioDifference, !- Zone Latent Heating Design Supply Air Humidity Ratio Input Method
    ,                        !- Zone Humidification Design Supply Air Humidity Ratio {kgWater/kgDryAir}
    0.005;                   !- Zone Humidification Design Supply Air Humidity Ratio Difference {kgWater/kgDryAir}

  SIZING:ZONE,
    Perimeter_bot_ZN_2 Thermal Zone,  !- Zone or ZoneList Name
    SupplyAirTemperature,    !- Zone Cooling Design Supply Air Temperature Input Method
    10,                      !- Zone Cooling Design Supply Air Temperature {C}
    ,                        !- Zone Cooling Design Supply Air Temperature Difference {deltaC}
    SupplyAirTemperature,    !- Zone Heating Design Supply Air Temperature Input Method
    50,                      !- Zone Heating Design Supply Air Temperature {C}
    ,                        !- Zone Heating Design Supply Air Temperature Difference {deltaC}
    0.02,                    !- Zone Cooling Design Supply Air Humidity Ratio {kgWater/kgDryAir}
    0.02,                    !- Zone Heating Design Supply Air Humidity Ratio {kgWater/kgDryAir}
    Office WholeBuilding - Md Office Outdoor Air Flow,  !- Design Specification Outdoor Air Object Name
    ,                        !- Zone Heating Sizing Factor
    1.25,                    !- Zone Cooling Sizing Factor
    DesignDay,               !- Cooling Design Air Flow Method
    0,                       !- Cooling Design Air Flow Rate {m3/s}
    ,                        !- Cooling Minimum Air Flow per Zone Floor Area {m3/s-m2}
    ,                        !- Cooling Minimum Air Flow {m3/s}
    0,                       !- Cooling Minimum Air Flow Fraction
    DesignDay,               !- Heating Design Air Flow Method
    0,                       !- Heating Design Air Flow Rate {m3/s}
    ,                        !- Heating Maximum Air Flow per Zone Floor Area {m3/s-m2}
    ,                        !- Heating Maximum Air Flow {m3/s}
    0,                       !- Heating Maximum Air Flow Fraction
    Typical ZAD,             !- Design Specification Zone Air Distribution Object Name
    ,                        !- Account for Dedicated Outdoor Air System
    ,                        !- Dedicated Outdoor Air System Control Strategy
    ,                        !- Dedicated Outdoor Air Low Setpoint Temperature for Design {C}
    ,                        !- Dedicated Outdoor Air High Setpoint Temperature for Design {C}
    Sensible Load Only No Latent Load,  !- Zone Load Sizing Method
    HumidityRatioDifference, !- Zone Latent Cooling Design Supply Air Humidity Ratio Input Method
    ,                        !- Zone Dehumidification Design Supply Air Humidity Ratio {kgWater/kgDryAir}
    0.005,                   !- Zone Cooling Design Supply Air Humidity Ratio Difference {kgWater/kgDryAir}
    HumidityRatioDifference, !- Zone Latent Heating Design Supply Air Humidity Ratio Input Method
    ,                        !- Zone Humidification Design Supply Air Humidity Ratio {kgWater/kgDryAir}
    0.005;                   !- Zone Humidification Design Supply Air Humidity Ratio Difference {kgWater/kgDryAir}

  ZONECONTROL:HUMIDISTAT,
    Perimeter_mid_ZN_1 Thermal Zone Humidistat,  !- Name
    Perimeter_mid_ZN_1 Thermal Zone,  !- Zone Name
    NECB A Humid,            !- Humidifying Relative Humidity Setpoint Schedule Name
    NECB A Dehumid;          !- Dehumidifying Relative Humidity Setpoint Schedule Name

  ZONECONTROL:HUMIDISTAT,
    Perimeter_top_ZN_3 Thermal Zone Humidistat,  !- Name
    Perimeter_top_ZN_3 Thermal Zone,  !- Zone Name
    NECB A Humid,            !- Humidifying Relative Humidity Setpoint Schedule Name
    NECB A Dehumid;          !- Dehumidifying Relative Humidity Setpoint Schedule Name

  ZONECONTROL:HUMIDISTAT,
    Perimeter_mid_ZN_3 Thermal Zone Humidistat,  !- Name
    Perimeter_mid_ZN_3 Thermal Zone,  !- Zone Name
    NECB A Humid,            !- Humidifying Relative Humidity Setpoint Schedule Name
    NECB A Dehumid;          !- Dehumidifying Relative Humidity Setpoint Schedule Name

  ZONECONTROL:HUMIDISTAT,
    Perimeter_mid_ZN_2 Thermal Zone Humidistat,  !- Name
    Perimeter_mid_ZN_2 Thermal Zone,  !- Zone Name
    NECB A Humid,            !- Humidifying Relative Humidity Setpoint Schedule Name
    NECB A Dehumid;          !- Dehumidifying Relative Humidity Setpoint Schedule Name

  ZONECONTROL:HUMIDISTAT,
    Core_bottom Thermal Zone Humidistat,  !- Name
    Core_bottom Thermal Zone,!- Zone Name
    NECB A Humid,            !- Humidifying Relative Humidity Setpoint Schedule Name
    NECB A Dehumid;          !- Dehumidifying Relative Humidity Setpoint Schedule Name

  ZONECONTROL:HUMIDISTAT,
    Perimeter_top_ZN_2 Thermal Zone Humidistat,  !- Name
    Perimeter_top_ZN_2 Thermal Zone,  !- Zone Name
    NECB A Humid,            !- Humidifying Relative Humidity Setpoint Schedule Name
    NECB A Dehumid;          !- Dehumidifying Relative Humidity Setpoint Schedule Name

  ZONECONTROL:HUMIDISTAT,
    Perimeter_top_ZN_4 Thermal Zone Humidistat,  !- Name
    Perimeter_top_ZN_4 Thermal Zone,  !- Zone Name
    NECB A Humid,            !- Humidifying Relative Humidity Setpoint Schedule Name
    NECB A Dehumid;          !- Dehumidifying Relative Humidity Setpoint Schedule Name

  ZONECONTROL:HUMIDISTAT,
    Perimeter_mid_ZN_4 Thermal Zone Humidistat,  !- Name
    Perimeter_mid_ZN_4 Thermal Zone,  !- Zone Name
    NECB A Humid,            !- Humidifying Relative Humidity Setpoint Schedule Name
    NECB A Dehumid;          !- Dehumidifying Relative Humidity Setpoint Schedule Name

  ZONECONTROL:HUMIDISTAT,
    Core_mid Thermal Zone Humidistat,  !- Name
    Core_mid Thermal Zone,   !- Zone Name
    NECB A Humid,            !- Humidifying Relative Humidity Setpoint Schedule Name
    NECB A Dehumid;          !- Dehumidifying Relative Humidity Setpoint Schedule Name

  ZONECONTROL:HUMIDISTAT,
    Perimeter_bot_ZN_3 Thermal Zone Humidistat,  !- Name
    Perimeter_bot_ZN_3 Thermal Zone,  !- Zone Name
    NECB A Humid,            !- Humidifying Relative Humidity Setpoint Schedule Name
    NECB A Dehumid;          !- Dehumidifying Relative Humidity Setpoint Schedule Name

  ZONECONTROL:HUMIDISTAT,
    Perimeter_bot_ZN_4 Thermal Zone Humidistat,  !- Name
    Perimeter_bot_ZN_4 Thermal Zone,  !- Zone Name
    NECB A Humid,            !- Humidifying Relative Humidity Setpoint Schedule Name
    NECB A Dehumid;          !- Dehumidifying Relative Humidity Setpoint Schedule Name

  ZONECONTROL:HUMIDISTAT,
    Perimeter_top_ZN_1 Thermal Zone Humidistat,  !- Name
    Perimeter_top_ZN_1 Thermal Zone,  !- Zone Name
    NECB A Humid,            !- Humidifying Relative Humidity Setpoint Schedule Name
    NECB A Dehumid;          !- Dehumidifying Relative Humidity Setpoint Schedule Name

  ZONECONTROL:HUMIDISTAT,
    Perimeter_bot_ZN_1 Thermal Zone Humidistat,  !- Name
    Perimeter_bot_ZN_1 Thermal Zone,  !- Zone Name
    NECB A Humid,            !- Humidifying Relative Humidity Setpoint Schedule Name
    NECB A Dehumid;          !- Dehumidifying Relative Humidity Setpoint Schedule Name

  ZONECONTROL:HUMIDISTAT,
    Core_top Thermal Zone Humidistat,  !- Name
    Core_top Thermal Zone,   !- Zone Name
    NECB A Humid,            !- Humidifying Relative Humidity Setpoint Schedule Name
    NECB A Dehumid;          !- Dehumidifying Relative Humidity Setpoint Schedule Name

  ZONECONTROL:HUMIDISTAT,
    Perimeter_bot_ZN_2 Thermal Zone Humidistat,  !- Name
    Perimeter_bot_ZN_2 Thermal Zone,  !- Zone Name
    NECB A Humid,            !- Humidifying Relative Humidity Setpoint Schedule Name
    NECB A Dehumid;          !- Dehumidifying Relative Humidity Setpoint Schedule Name

  ZONECONTROL:THERMOSTAT,
    Perimeter_mid_ZN_1 Thermal Zone Thermostat,  !- Name
    Perimeter_mid_ZN_1 Thermal Zone,  !- Zone or ZoneList Name
    Thermostat Control Type 4,  !- Control Type Schedule Name
    ThermostatSetpoint:DualSetpoint,  !- Control 1 Object Type
    All Zones Thermostat Dual Setpoint SP Control,  !- Control 1 Name
    ,                        !- Control 2 Object Type
    ,                        !- Control 2 Name
    ,                        !- Control 3 Object Type
    ,                        !- Control 3 Name
    ,                        !- Control 4 Object Type
    ,                        !- Control 4 Name
    0;                       !- Temperature Difference Between Cutout And Setpoint {deltaC}

  ZONECONTROL:THERMOSTAT,
    Perimeter_top_ZN_3 Thermal Zone Thermostat,  !- Name
    Perimeter_top_ZN_3 Thermal Zone,  !- Zone or ZoneList Name
    Thermostat Control Type 4,  !- Control Type Schedule Name
    ThermostatSetpoint:DualSetpoint,  !- Control 1 Object Type
    All Zones Thermostat Dual Setpoint SP Control,  !- Control 1 Name
    ,                        !- Control 2 Object Type
    ,                        !- Control 2 Name
    ,                        !- Control 3 Object Type
    ,                        !- Control 3 Name
    ,                        !- Control 4 Object Type
    ,                        !- Control 4 Name
    0;                       !- Temperature Difference Between Cutout And Setpoint {deltaC}

  ZONECONTROL:THERMOSTAT,
    Perimeter_mid_ZN_3 Thermal Zone Thermostat,  !- Name
    Perimeter_mid_ZN_3 Thermal Zone,  !- Zone or ZoneList Name
    Thermostat Control Type 4,  !- Control Type Schedule Name
    ThermostatSetpoint:DualSetpoint,  !- Control 1 Object Type
    All Zones Thermostat Dual Setpoint SP Control,  !- Control 1 Name
    ,                        !- Control 2 Object Type
    ,                        !- Control 2 Name
    ,                        !- Control 3 Object Type
    ,                        !- Control 3 Name
    ,                        !- Control 4 Object Type
    ,                        !- Control 4 Name
    0;                       !- Temperature Difference Between Cutout And Setpoint {deltaC}

  ZONECONTROL:THERMOSTAT,
    Perimeter_mid_ZN_2 Thermal Zone Thermostat,  !- Name
    Perimeter_mid_ZN_2 Thermal Zone,  !- Zone or ZoneList Name
    Thermostat Control Type 4,  !- Control Type Schedule Name
    ThermostatSetpoint:DualSetpoint,  !- Control 1 Object Type
    All Zones Thermostat Dual Setpoint SP Control,  !- Control 1 Name
    ,                        !- Control 2 Object Type
    ,                        !- Control 2 Name
    ,                        !- Control 3 Object Type
    ,                        !- Control 3 Name
    ,                        !- Control 4 Object Type
    ,                        !- Control 4 Name
    0;                       !- Temperature Difference Between Cutout And Setpoint {deltaC}

  ZONECONTROL:THERMOSTAT,
    Core_bottom Thermal Zone Thermostat,  !- Name
    Core_bottom Thermal Zone,!- Zone or ZoneList Name
    Thermostat Control Type 4,  !- Control Type Schedule Name
    ThermostatSetpoint:DualSetpoint,  !- Control 1 Object Type
    All Zones Thermostat Dual Setpoint SP Control,  !- Control 1 Name
    ,                        !- Control 2 Object Type
    ,                        !- Control 2 Name
    ,                        !- Control 3 Object Type
    ,                        !- Control 3 Name
    ,                        !- Control 4 Object Type
    ,                        !- Control 4 Name
    0;                       !- Temperature Difference Between Cutout And Setpoint {deltaC}

  ZONECONTROL:THERMOSTAT,
    Perimeter_top_ZN_2 Thermal Zone Thermostat,  !- Name
    Perimeter_top_ZN_2 Thermal Zone,  !- Zone or ZoneList Name
    Thermostat Control Type 4,  !- Control Type Schedule Name
    ThermostatSetpoint:DualSetpoint,  !- Control 1 Object Type
    All Zones Thermostat Dual Setpoint SP Control,  !- Control 1 Name
    ,                        !- Control 2 Object Type
    ,                        !- Control 2 Name
    ,                        !- Control 3 Object Type
    ,                        !- Control 3 Name
    ,                        !- Control 4 Object Type
    ,                        !- Control 4 Name
    0;                       !- Temperature Difference Between Cutout And Setpoint {deltaC}

  ZONECONTROL:THERMOSTAT,
    Perimeter_top_ZN_4 Thermal Zone Thermostat,  !- Name
    Perimeter_top_ZN_4 Thermal Zone,  !- Zone or ZoneList Name
    Thermostat Control Type 4,  !- Control Type Schedule Name
    ThermostatSetpoint:DualSetpoint,  !- Control 1 Object Type
    All Zones Thermostat Dual Setpoint SP Control,  !- Control 1 Name
    ,                        !- Control 2 Object Type
    ,                        !- Control 2 Name
    ,                        !- Control 3 Object Type
    ,                        !- Control 3 Name
    ,                        !- Control 4 Object Type
    ,                        !- Control 4 Name
    0;                       !- Temperature Difference Between Cutout And Setpoint {deltaC}

  ZONECONTROL:THERMOSTAT,
    Perimeter_mid_ZN_4 Thermal Zone Thermostat,  !- Name
    Perimeter_mid_ZN_4 Thermal Zone,  !- Zone or ZoneList Name
    Thermostat Control Type 4,  !- Control Type Schedule Name
    ThermostatSetpoint:DualSetpoint,  !- Control 1 Object Type
    All Zones Thermostat Dual Setpoint SP Control,  !- Control 1 Name
    ,                        !- Control 2 Object Type
    ,                        !- Control 2 Name
    ,                        !- Control 3 Object Type
    ,                        !- Control 3 Name
    ,                        !- Control 4 Object Type
    ,                        !- Control 4 Name
    0;                       !- Temperature Difference Between Cutout And Setpoint {deltaC}

  ZONECONTROL:THERMOSTAT,
    Core_mid Thermal Zone Thermostat,  !- Name
    Core_mid Thermal Zone,   !- Zone or ZoneList Name
    Thermostat Control Type 4,  !- Control Type Schedule Name
    ThermostatSetpoint:DualSetpoint,  !- Control 1 Object Type
    All Zones Thermostat Dual Setpoint SP Control,  !- Control 1 Name
    ,                        !- Control 2 Object Type
    ,                        !- Control 2 Name
    ,                        !- Control 3 Object Type
    ,                        !- Control 3 Name
    ,                        !- Control 4 Object Type
    ,                        !- Control 4 Name
    0;                       !- Temperature Difference Between Cutout And Setpoint {deltaC}

  ZONECONTROL:THERMOSTAT,
    Perimeter_bot_ZN_3 Thermal Zone Thermostat,  !- Name
    Perimeter_bot_ZN_3 Thermal Zone,  !- Zone or ZoneList Name
    Thermostat Control Type 4,  !- Control Type Schedule Name
    ThermostatSetpoint:DualSetpoint,  !- Control 1 Object Type
    All Zones Thermostat Dual Setpoint SP Control,  !- Control 1 Name
    ,                        !- Control 2 Object Type
    ,                        !- Control 2 Name
    ,                        !- Control 3 Object Type
    ,                        !- Control 3 Name
    ,                        !- Control 4 Object Type
    ,                        !- Control 4 Name
    0;                       !- Temperature Difference Between Cutout And Setpoint {deltaC}

  ZONECONTROL:THERMOSTAT,
    Perimeter_bot_ZN_4 Thermal Zone Thermostat,  !- Name
    Perimeter_bot_ZN_4 Thermal Zone,  !- Zone or ZoneList Name
    Thermostat Control Type 4,  !- Control Type Schedule Name
    ThermostatSetpoint:DualSetpoint,  !- Control 1 Object Type
    All Zones Thermostat Dual Setpoint SP Control,  !- Control 1 Name
    ,                        !- Control 2 Object Type
    ,                        !- Control 2 Name
    ,                        !- Control 3 Object Type
    ,                        !- Control 3 Name
    ,                        !- Control 4 Object Type
    ,                        !- Control 4 Name
    0;                       !- Temperature Difference Between Cutout And Setpoint {deltaC}

  ZONECONTROL:THERMOSTAT,
    Perimeter_top_ZN_1 Thermal Zone Thermostat,  !- Name
    Perimeter_top_ZN_1 Thermal Zone,  !- Zone or ZoneList Name
    Thermostat Control Type 4,  !- Control Type Schedule Name
    ThermostatSetpoint:DualSetpoint,  !- Control 1 Object Type
    All Zones Thermostat Dual Setpoint SP Control,  !- Control 1 Name
    ,                        !- Control 2 Object Type
    ,                        !- Control 2 Name
    ,                        !- Control 3 Object Type
    ,                        !- Control 3 Name
    ,                        !- Control 4 Object Type
    ,                        !- Control 4 Name
    0;                       !- Temperature Difference Between Cutout And Setpoint {deltaC}

  ZONECONTROL:THERMOSTAT,
    Perimeter_bot_ZN_1 Thermal Zone Thermostat,  !- Name
    Perimeter_bot_ZN_1 Thermal Zone,  !- Zone or ZoneList Name
    Thermostat Control Type 4,  !- Control Type Schedule Name
    ThermostatSetpoint:DualSetpoint,  !- Control 1 Object Type
    All Zones Thermostat Dual Setpoint SP Control,  !- Control 1 Name
    ,                        !- Control 2 Object Type
    ,                        !- Control 2 Name
    ,                        !- Control 3 Object Type
    ,                        !- Control 3 Name
    ,                        !- Control 4 Object Type
    ,                        !- Control 4 Name
    0;                       !- Temperature Difference Between Cutout And Setpoint {deltaC}

  ZONECONTROL:THERMOSTAT,
    Core_top Thermal Zone Thermostat,  !- Name
    Core_top Thermal Zone,   !- Zone or ZoneList Name
    Thermostat Control Type 4,  !- Control Type Schedule Name
    ThermostatSetpoint:DualSetpoint,  !- Control 1 Object Type
    All Zones Thermostat Dual Setpoint SP Control,  !- Control 1 Name
    ,                        !- Control 2 Object Type
    ,                        !- Control 2 Name
    ,                        !- Control 3 Object Type
    ,                        !- Control 3 Name
    ,                        !- Control 4 Object Type
    ,                        !- Control 4 Name
    0;                       !- Temperature Difference Between Cutout And Setpoint {deltaC}

  ZONECONTROL:THERMOSTAT,
    Perimeter_bot_ZN_2 Thermal Zone Thermostat,  !- Name
    Perimeter_bot_ZN_2 Thermal Zone,  !- Zone or ZoneList Name
    Thermostat Control Type 4,  !- Control Type Schedule Name
    ThermostatSetpoint:DualSetpoint,  !- Control 1 Object Type
    All Zones Thermostat Dual Setpoint SP Control,  !- Control 1 Name
    ,                        !- Control 2 Object Type
    ,                        !- Control 2 Name
    ,                        !- Control 3 Object Type
    ,                        !- Control 3 Name
    ,                        !- Control 4 Object Type
    ,                        !- Control 4 Name
    0;                       !- Temperature Difference Between Cutout And Setpoint {deltaC}

  THERMOSTATSETPOINT:DUALSETPOINT,
    All Zones Thermostat Dual Setpoint SP Control,  !- Name
    NECB A Heating,          !- Heating Setpoint Temperature Schedule Name
    NECB A Cooling;          !- Cooling Setpoint Temperature Schedule Name

  ZONEHVAC:IDEALLOADSAIRSYSTEM,
    Perimeter_mid_ZN_1 Thermal Zone Ideal Loads Air System,  !- Name
    ,                        !- Availability Schedule Name
    Perimeter_mid_ZN_1 Thermal Zone Ideal Loads Supply Inlet,  !- Zone Supply Air Node Name
    ,                        !- Zone Exhaust Air Node Name
    ,                        !- System Inlet Air Node Name
    50,                      !- Maximum Heating Supply Air Temperature {C}
    10,                      !- Minimum Cooling Supply Air Temperature {C}
    0.02,                    !- Maximum Heating Supply Air Humidity Ratio {kgWater/kgDryAir}
    0.02,                    !- Minimum Cooling Supply Air Humidity Ratio {kgWater/kgDryAir}
    NoLimit,                 !- Heating Limit
    ,                        !- Maximum Heating Air Flow Rate {m3/s}
    ,                        !- Maximum Sensible Heating Capacity {W}
    LimitFlowRate,           !- Cooling Limit
    autosize,                !- Maximum Cooling Air Flow Rate {m3/s}
    ,                        !- Maximum Total Cooling Capacity {W}
    ,                        !- Heating Availability Schedule Name
    ,                        !- Cooling Availability Schedule Name
    Humidistat,              !- Dehumidification Control Type
    0.7,                     !- Cooling Sensible Heat Ratio {dimensionless}
    Humidistat,              !- Humidification Control Type
    Office WholeBuilding - Md Office Outdoor Air Flow,  !- Design Specification Outdoor Air Object Name
    Perimeter_mid_ZN_1 Thermal Zone Ideal Loads Outdoor Air Inlet,  !- Outdoor Air Inlet Node Name
    None,                    !- Demand Controlled Ventilation Type
    NoEconomizer,            !- Outdoor Air Economizer Type
    Enthalpy,                !- Heat Recovery Type
    0,                       !- Sensible Heat Recovery Effectiveness {dimensionless}
    0;                       !- Latent Heat Recovery Effectiveness {dimensionless}

  ZONEHVAC:IDEALLOADSAIRSYSTEM,
    Perimeter_top_ZN_3 Thermal Zone Ideal Loads Air System,  !- Name
    ,                        !- Availability Schedule Name
    Perimeter_top_ZN_3 Thermal Zone Ideal Loads Supply Inlet,  !- Zone Supply Air Node Name
    ,                        !- Zone Exhaust Air Node Name
    ,                        !- System Inlet Air Node Name
    50,                      !- Maximum Heating Supply Air Temperature {C}
    10,                      !- Minimum Cooling Supply Air Temperature {C}
    0.02,                    !- Maximum Heating Supply Air Humidity Ratio {kgWater/kgDryAir}
    0.02,                    !- Minimum Cooling Supply Air Humidity Ratio {kgWater/kgDryAir}
    NoLimit,                 !- Heating Limit
    ,                        !- Maximum Heating Air Flow Rate {m3/s}
    ,                        !- Maximum Sensible Heating Capacity {W}
    LimitFlowRate,           !- Cooling Limit
    autosize,                !- Maximum Cooling Air Flow Rate {m3/s}
    ,                        !- Maximum Total Cooling Capacity {W}
    ,                        !- Heating Availability Schedule Name
    ,                        !- Cooling Availability Schedule Name
    Humidistat,              !- Dehumidification Control Type
    0.7,                     !- Cooling Sensible Heat Ratio {dimensionless}
    Humidistat,              !- Humidification Control Type
    Office WholeBuilding - Md Office Outdoor Air Flow,  !- Design Specification Outdoor Air Object Name
    Perimeter_top_ZN_3 Thermal Zone Ideal Loads Outdoor Air Inlet,  !- Outdoor Air Inlet Node Name
    None,                    !- Demand Controlled Ventilation Type
    NoEconomizer,            !- Outdoor Air Economizer Type
    Enthalpy,                !- Heat Recovery Type
    0,                       !- Sensible Heat Recovery Effectiveness {dimensionless}
    0;                       !- Latent Heat Recovery Effectiveness {dimensionless}

  ZONEHVAC:IDEALLOADSAIRSYSTEM,
    Perimeter_mid_ZN_3 Thermal Zone Ideal Loads Air System,  !- Name
    ,                        !- Availability Schedule Name
    Perimeter_mid_ZN_3 Thermal Zone Ideal Loads Supply Inlet,  !- Zone Supply Air Node Name
    ,                        !- Zone Exhaust Air Node Name
    ,                        !- System Inlet Air Node Name
    50,                      !- Maximum Heating Supply Air Temperature {C}
    10,                      !- Minimum Cooling Supply Air Temperature {C}
    0.02,                    !- Maximum Heating Supply Air Humidity Ratio {kgWater/kgDryAir}
    0.02,                    !- Minimum Cooling Supply Air Humidity Ratio {kgWater/kgDryAir}
    NoLimit,                 !- Heating Limit
    ,                        !- Maximum Heating Air Flow Rate {m3/s}
    ,                        !- Maximum Sensible Heating Capacity {W}
    LimitFlowRate,           !- Cooling Limit
    autosize,                !- Maximum Cooling Air Flow Rate {m3/s}
    ,                        !- Maximum Total Cooling Capacity {W}
    ,                        !- Heating Availability Schedule Name
    ,                        !- Cooling Availability Schedule Name
    Humidistat,              !- Dehumidification Control Type
    0.7,                     !- Cooling Sensible Heat Ratio {dimensionless}
    Humidistat,              !- Humidification Control Type
    Office WholeBuilding - Md Office Outdoor Air Flow,  !- Design Specification Outdoor Air Object Name
    Perimeter_mid_ZN_3 Thermal Zone Ideal Loads Outdoor Air Inlet,  !- Outdoor Air Inlet Node Name
    None,                    !- Demand Controlled Ventilation Type
    NoEconomizer,            !- Outdoor Air Economizer Type
    Enthalpy,                !- Heat Recovery Type
    0,                       !- Sensible Heat Recovery Effectiveness {dimensionless}
    0;                       !- Latent Heat Recovery Effectiveness {dimensionless}

  ZONEHVAC:IDEALLOADSAIRSYSTEM,
    Perimeter_mid_ZN_2 Thermal Zone Ideal Loads Air System,  !- Name
    ,                        !- Availability Schedule Name
    Perimeter_mid_ZN_2 Thermal Zone Ideal Loads Supply Inlet,  !- Zone Supply Air Node Name
    ,                        !- Zone Exhaust Air Node Name
    ,                        !- System Inlet Air Node Name
    50,                      !- Maximum Heating Supply Air Temperature {C}
    10,                      !- Minimum Cooling Supply Air Temperature {C}
    0.02,                    !- Maximum Heating Supply Air Humidity Ratio {kgWater/kgDryAir}
    0.02,                    !- Minimum Cooling Supply Air Humidity Ratio {kgWater/kgDryAir}
    NoLimit,                 !- Heating Limit
    ,                        !- Maximum Heating Air Flow Rate {m3/s}
    ,                        !- Maximum Sensible Heating Capacity {W}
    LimitFlowRate,           !- Cooling Limit
    autosize,                !- Maximum Cooling Air Flow Rate {m3/s}
    ,                        !- Maximum Total Cooling Capacity {W}
    ,                        !- Heating Availability Schedule Name
    ,                        !- Cooling Availability Schedule Name
    Humidistat,              !- Dehumidification Control Type
    0.7,                     !- Cooling Sensible Heat Ratio {dimensionless}
    Humidistat,              !- Humidification Control Type
    Office WholeBuilding - Md Office Outdoor Air Flow,  !- Design Specification Outdoor Air Object Name
    Perimeter_mid_ZN_2 Thermal Zone Ideal Loads Outdoor Air Inlet,  !- Outdoor Air Inlet Node Name
    None,                    !- Demand Controlled Ventilation Type
    NoEconomizer,            !- Outdoor Air Economizer Type
    Enthalpy,                !- Heat Recovery Type
    0,                       !- Sensible Heat Recovery Effectiveness {dimensionless}
    0;                       !- Latent Heat Recovery Effectiveness {dimensionless}

  ZONEHVAC:IDEALLOADSAIRSYSTEM,
    Core_bottom Thermal Zone Ideal Loads Air System,  !- Name
    ,                        !- Availability Schedule Name
    Core_bottom Thermal Zone Ideal Loads Supply Inlet,  !- Zone Supply Air Node Name
    ,                        !- Zone Exhaust Air Node Name
    ,                        !- System Inlet Air Node Name
    50,                      !- Maximum Heating Supply Air Temperature {C}
    10,                      !- Minimum Cooling Supply Air Temperature {C}
    0.02,                    !- Maximum Heating Supply Air Humidity Ratio {kgWater/kgDryAir}
    0.02,                    !- Minimum Cooling Supply Air Humidity Ratio {kgWater/kgDryAir}
    NoLimit,                 !- Heating Limit
    ,                        !- Maximum Heating Air Flow Rate {m3/s}
    ,                        !- Maximum Sensible Heating Capacity {W}
    LimitFlowRate,           !- Cooling Limit
    autosize,                !- Maximum Cooling Air Flow Rate {m3/s}
    ,                        !- Maximum Total Cooling Capacity {W}
    ,                        !- Heating Availability Schedule Name
    ,                        !- Cooling Availability Schedule Name
    Humidistat,              !- Dehumidification Control Type
    0.7,                     !- Cooling Sensible Heat Ratio {dimensionless}
    Humidistat,              !- Humidification Control Type
    Office WholeBuilding - Md Office Outdoor Air Flow,  !- Design Specification Outdoor Air Object Name
    Core_bottom Thermal Zone Ideal Loads Outdoor Air Inlet,  !- Outdoor Air Inlet Node Name
    None,                    !- Demand Controlled Ventilation Type
    NoEconomizer,            !- Outdoor Air Economizer Type
    Enthalpy,                !- Heat Recovery Type
    0,                       !- Sensible Heat Recovery Effectiveness {dimensionless}
    0;                       !- Latent Heat Recovery Effectiveness {dimensionless}

  ZONEHVAC:IDEALLOADSAIRSYSTEM,
    Perimeter_top_ZN_2 Thermal Zone Ideal Loads Air System,  !- Name
    ,                        !- Availability Schedule Name
    Perimeter_top_ZN_2 Thermal Zone Ideal Loads Supply Inlet,  !- Zone Supply Air Node Name
    ,                        !- Zone Exhaust Air Node Name
    ,                        !- System Inlet Air Node Name
    50,                      !- Maximum Heating Supply Air Temperature {C}
    10,                      !- Minimum Cooling Supply Air Temperature {C}
    0.02,                    !- Maximum Heating Supply Air Humidity Ratio {kgWater/kgDryAir}
    0.02,                    !- Minimum Cooling Supply Air Humidity Ratio {kgWater/kgDryAir}
    NoLimit,                 !- Heating Limit
    ,                        !- Maximum Heating Air Flow Rate {m3/s}
    ,                        !- Maximum Sensible Heating Capacity {W}
    LimitFlowRate,           !- Cooling Limit
    autosize,                !- Maximum Cooling Air Flow Rate {m3/s}
    ,                        !- Maximum Total Cooling Capacity {W}
    ,                        !- Heating Availability Schedule Name
    ,                        !- Cooling Availability Schedule Name
    Humidistat,              !- Dehumidification Control Type
    0.7,                     !- Cooling Sensible Heat Ratio {dimensionless}
    Humidistat,              !- Humidification Control Type
    Office WholeBuilding - Md Office Outdoor Air Flow,  !- Design Specification Outdoor Air Object Name
    Perimeter_top_ZN_2 Thermal Zone Ideal Loads Outdoor Air Inlet,  !- Outdoor Air Inlet Node Name
    None,                    !- Demand Controlled Ventilation Type
    NoEconomizer,            !- Outdoor Air Economizer Type
    Enthalpy,                !- Heat Recovery Type
    0,                       !- Sensible Heat Recovery Effectiveness {dimensionless}
    0;                       !- Latent Heat Recovery Effectiveness {dimensionless}

  ZONEHVAC:IDEALLOADSAIRSYSTEM,
    Perimeter_top_ZN_4 Thermal Zone Ideal Loads Air System,  !- Name
    ,                        !- Availability Schedule Name
    Perimeter_top_ZN_4 Thermal Zone Ideal Loads Supply Inlet,  !- Zone Supply Air Node Name
    ,                        !- Zone Exhaust Air Node Name
    ,                        !- System Inlet Air Node Name
    50,                      !- Maximum Heating Supply Air Temperature {C}
    10,                      !- Minimum Cooling Supply Air Temperature {C}
    0.02,                    !- Maximum Heating Supply Air Humidity Ratio {kgWater/kgDryAir}
    0.02,                    !- Minimum Cooling Supply Air Humidity Ratio {kgWater/kgDryAir}
    NoLimit,                 !- Heating Limit
    ,                        !- Maximum Heating Air Flow Rate {m3/s}
    ,                        !- Maximum Sensible Heating Capacity {W}
    LimitFlowRate,           !- Cooling Limit
    autosize,                !- Maximum Cooling Air Flow Rate {m3/s}
    ,                        !- Maximum Total Cooling Capacity {W}
    ,                        !- Heating Availability Schedule Name
    ,                        !- Cooling Availability Schedule Name
    Humidistat,              !- Dehumidification Control Type
    0.7,                     !- Cooling Sensible Heat Ratio {dimensionless}
    Humidistat,              !- Humidification Control Type
    Office WholeBuilding - Md Office Outdoor Air Flow,  !- Design Specification Outdoor Air Object Name
    Perimeter_top_ZN_4 Thermal Zone Ideal Loads Outdoor Air Inlet,  !- Outdoor Air Inlet Node Name
    None,                    !- Demand Controlled Ventilation Type
    NoEconomizer,            !- Outdoor Air Economizer Type
    Enthalpy,                !- Heat Recovery Type
    0,                       !- Sensible Heat Recovery Effectiveness {dimensionless}
    0;                       !- Latent Heat Recovery Effectiveness {dimensionless}

  ZONEHVAC:IDEALLOADSAIRSYSTEM,
    Perimeter_mid_ZN_4 Thermal Zone Ideal Loads Air System,  !- Name
    ,                        !- Availability Schedule Name
    Perimeter_mid_ZN_4 Thermal Zone Ideal Loads Supply Inlet,  !- Zone Supply Air Node Name
    ,                        !- Zone Exhaust Air Node Name
    ,                        !- System Inlet Air Node Name
    50,                      !- Maximum Heating Supply Air Temperature {C}
    10,                      !- Minimum Cooling Supply Air Temperature {C}
    0.02,                    !- Maximum Heating Supply Air Humidity Ratio {kgWater/kgDryAir}
    0.02,                    !- Minimum Cooling Supply Air Humidity Ratio {kgWater/kgDryAir}
    NoLimit,                 !- Heating Limit
    ,                        !- Maximum Heating Air Flow Rate {m3/s}
    ,                        !- Maximum Sensible Heating Capacity {W}
    LimitFlowRate,           !- Cooling Limit
    autosize,                !- Maximum Cooling Air Flow Rate {m3/s}
    ,                        !- Maximum Total Cooling Capacity {W}
    ,                        !- Heating Availability Schedule Name
    ,                        !- Cooling Availability Schedule Name
    Humidistat,              !- Dehumidification Control Type
    0.7,                     !- Cooling Sensible Heat Ratio {dimensionless}
    Humidistat,              !- Humidification Control Type
    Office WholeBuilding - Md Office Outdoor Air Flow,  !- Design Specification Outdoor Air Object Name
    Perimeter_mid_ZN_4 Thermal Zone Ideal Loads Outdoor Air Inlet,  !- Outdoor Air Inlet Node Name
    None,                    !- Demand Controlled Ventilation Type
    NoEconomizer,            !- Outdoor Air Economizer Type
    Enthalpy,                !- Heat Recovery Type
    0,                       !- Sensible Heat Recovery Effectiveness {dimensionless}
    0;                       !- Latent Heat Recovery Effectiveness {dimensionless}

  ZONEHVAC:IDEALLOADSAIRSYSTEM,
    Core_mid Thermal Zone Ideal Loads Air System,  !- Name
    ,                        !- Availability Schedule Name
    Core_mid Thermal Zone Ideal Loads Supply Inlet,  !- Zone Supply Air Node Name
    ,                        !- Zone Exhaust Air Node Name
    ,                        !- System Inlet Air Node Name
    50,                      !- Maximum Heating Supply Air Temperature {C}
    10,                      !- Minimum Cooling Supply Air Temperature {C}
    0.02,                    !- Maximum Heating Supply Air Humidity Ratio {kgWater/kgDryAir}
    0.02,                    !- Minimum Cooling Supply Air Humidity Ratio {kgWater/kgDryAir}
    NoLimit,                 !- Heating Limit
    ,                        !- Maximum Heating Air Flow Rate {m3/s}
    ,                        !- Maximum Sensible Heating Capacity {W}
    LimitFlowRate,           !- Cooling Limit
    autosize,                !- Maximum Cooling Air Flow Rate {m3/s}
    ,                        !- Maximum Total Cooling Capacity {W}
    ,                        !- Heating Availability Schedule Name
    ,                        !- Cooling Availability Schedule Name
    Humidistat,              !- Dehumidification Control Type
    0.7,                     !- Cooling Sensible Heat Ratio {dimensionless}
    Humidistat,              !- Humidification Control Type
    Office WholeBuilding - Md Office Outdoor Air Flow,  !- Design Specification Outdoor Air Object Name
    Core_mid Thermal Zone Ideal Loads Outdoor Air Inlet,  !- Outdoor Air Inlet Node Name
    None,                    !- Demand Controlled Ventilation Type
    NoEconomizer,            !- Outdoor Air Economizer Type
    Enthalpy,                !- Heat Recovery Type
    0,                       !- Sensible Heat Recovery Effectiveness {dimensionless}
    0;                       !- Latent Heat Recovery Effectiveness {dimensionless}

  ZONEHVAC:IDEALLOADSAIRSYSTEM,
    Perimeter_bot_ZN_3 Thermal Zone Ideal Loads Air System,  !- Name
    ,                        !- Availability Schedule Name
    Perimeter_bot_ZN_3 Thermal Zone Ideal Loads Supply Inlet,  !- Zone Supply Air Node Name
    ,                        !- Zone Exhaust Air Node Name
    ,                        !- System Inlet Air Node Name
    50,                      !- Maximum Heating Supply Air Temperature {C}
    10,                      !- Minimum Cooling Supply Air Temperature {C}
    0.02,                    !- Maximum Heating Supply Air Humidity Ratio {kgWater/kgDryAir}
    0.02,                    !- Minimum Cooling Supply Air Humidity Ratio {kgWater/kgDryAir}
    NoLimit,                 !- Heating Limit
    ,                        !- Maximum Heating Air Flow Rate {m3/s}
    ,                        !- Maximum Sensible Heating Capacity {W}
    LimitFlowRate,           !- Cooling Limit
    autosize,                !- Maximum Cooling Air Flow Rate {m3/s}
    ,                        !- Maximum Total Cooling Capacity {W}
    ,                        !- Heating Availability Schedule Name
    ,                        !- Cooling Availability Schedule Name
    Humidistat,              !- Dehumidification Control Type
    0.7,                     !- Cooling Sensible Heat Ratio {dimensionless}
    Humidistat,              !- Humidification Control Type
    Office WholeBuilding - Md Office Outdoor Air Flow,  !- Design Specification Outdoor Air Object Name
    Perimeter_bot_ZN_3 Thermal Zone Ideal Loads Outdoor Air Inlet,  !- Outdoor Air Inlet Node Name
    None,                    !- Demand Controlled Ventilation Type
    NoEconomizer,            !- Outdoor Air Economizer Type
    Enthalpy,                !- Heat Recovery Type
    0,                       !- Sensible Heat Recovery Effectiveness {dimensionless}
    0;                       !- Latent Heat Recovery Effectiveness {dimensionless}

  ZONEHVAC:IDEALLOADSAIRSYSTEM,
    Perimeter_bot_ZN_4 Thermal Zone Ideal Loads Air System,  !- Name
    ,                        !- Availability Schedule Name
    Perimeter_bot_ZN_4 Thermal Zone Ideal Loads Supply Inlet,  !- Zone Supply Air Node Name
    ,                        !- Zone Exhaust Air Node Name
    ,                        !- System Inlet Air Node Name
    50,                      !- Maximum Heating Supply Air Temperature {C}
    10,                      !- Minimum Cooling Supply Air Temperature {C}
    0.02,                    !- Maximum Heating Supply Air Humidity Ratio {kgWater/kgDryAir}
    0.02,                    !- Minimum Cooling Supply Air Humidity Ratio {kgWater/kgDryAir}
    NoLimit,                 !- Heating Limit
    ,                        !- Maximum Heating Air Flow Rate {m3/s}
    ,                        !- Maximum Sensible Heating Capacity {W}
    LimitFlowRate,           !- Cooling Limit
    autosize,                !- Maximum Cooling Air Flow Rate {m3/s}
    ,                        !- Maximum Total Cooling Capacity {W}
    ,                        !- Heating Availability Schedule Name
    ,                        !- Cooling Availability Schedule Name
    Humidistat,              !- Dehumidification Control Type
    0.7,                     !- Cooling Sensible Heat Ratio {dimensionless}
    Humidistat,              !- Humidification Control Type
    Office WholeBuilding - Md Office Outdoor Air Flow,  !- Design Specification Outdoor Air Object Name
    Perimeter_bot_ZN_4 Thermal Zone Ideal Loads Outdoor Air Inlet,  !- Outdoor Air Inlet Node Name
    None,                    !- Demand Controlled Ventilation Type
    NoEconomizer,            !- Outdoor Air Economizer Type
    Enthalpy,                !- Heat Recovery Type
    0,                       !- Sensible Heat Recovery Effectiveness {dimensionless}
    0;                       !- Latent Heat Recovery Effectiveness {dimensionless}

  ZONEHVAC:IDEALLOADSAIRSYSTEM,
    Perimeter_top_ZN_1 Thermal Zone Ideal Loads Air System,  !- Name
    ,                        !- Availability Schedule Name
    Perimeter_top_ZN_1 Thermal Zone Ideal Loads Supply Inlet,  !- Zone Supply Air Node Name
    ,                        !- Zone Exhaust Air Node Name
    ,                        !- System Inlet Air Node Name
    50,                      !- Maximum Heating Supply Air Temperature {C}
    10,                      !- Minimum Cooling Supply Air Temperature {C}
    0.02,                    !- Maximum Heating Supply Air Humidity Ratio {kgWater/kgDryAir}
    0.02,                    !- Minimum Cooling Supply Air Humidity Ratio {kgWater/kgDryAir}
    NoLimit,                 !- Heating Limit
    ,                        !- Maximum Heating Air Flow Rate {m3/s}
    ,                        !- Maximum Sensible Heating Capacity {W}
    LimitFlowRate,           !- Cooling Limit
    autosize,                !- Maximum Cooling Air Flow Rate {m3/s}
    ,                        !- Maximum Total Cooling Capacity {W}
    ,                        !- Heating Availability Schedule Name
    ,                        !- Cooling Availability Schedule Name
    Humidistat,              !- Dehumidification Control Type
    0.7,                     !- Cooling Sensible Heat Ratio {dimensionless}
    Humidistat,              !- Humidification Control Type
    Office WholeBuilding - Md Office Outdoor Air Flow,  !- Design Specification Outdoor Air Object Name
    Perimeter_top_ZN_1 Thermal Zone Ideal Loads Outdoor Air Inlet,  !- Outdoor Air Inlet Node Name
    None,                    !- Demand Controlled Ventilation Type
    NoEconomizer,            !- Outdoor Air Economizer Type
    Enthalpy,                !- Heat Recovery Type
    0,                       !- Sensible Heat Recovery Effectiveness {dimensionless}
    0;                       !- Latent Heat Recovery Effectiveness {dimensionless}

  ZONEHVAC:IDEALLOADSAIRSYSTEM,
    Perimeter_bot_ZN_1 Thermal Zone Ideal Loads Air System,  !- Name
    ,                        !- Availability Schedule Name
    Perimeter_bot_ZN_1 Thermal Zone Ideal Loads Supply Inlet,  !- Zone Supply Air Node Name
    ,                        !- Zone Exhaust Air Node Name
    ,                        !- System Inlet Air Node Name
    50,                      !- Maximum Heating Supply Air Temperature {C}
    10,                      !- Minimum Cooling Supply Air Temperature {C}
    0.02,                    !- Maximum Heating Supply Air Humidity Ratio {kgWater/kgDryAir}
    0.02,                    !- Minimum Cooling Supply Air Humidity Ratio {kgWater/kgDryAir}
    NoLimit,                 !- Heating Limit
    ,                        !- Maximum Heating Air Flow Rate {m3/s}
    ,                        !- Maximum Sensible Heating Capacity {W}
    LimitFlowRate,           !- Cooling Limit
    autosize,                !- Maximum Cooling Air Flow Rate {m3/s}
    ,                        !- Maximum Total Cooling Capacity {W}
    ,                        !- Heating Availability Schedule Name
    ,                        !- Cooling Availability Schedule Name
    Humidistat,              !- Dehumidification Control Type
    0.7,                     !- Cooling Sensible Heat Ratio {dimensionless}
    Humidistat,              !- Humidification Control Type
    Office WholeBuilding - Md Office Outdoor Air Flow,  !- Design Specification Outdoor Air Object Name
    Perimeter_bot_ZN_1 Thermal Zone Ideal Loads Outdoor Air Inlet,  !- Outdoor Air Inlet Node Name
    None,                    !- Demand Controlled Ventilation Type
    NoEconomizer,            !- Outdoor Air Economizer Type
    Enthalpy,                !- Heat Recovery Type
    0,                       !- Sensible Heat Recovery Effectiveness {dimensionless}
    0;                       !- Latent Heat Recovery Effectiveness {dimensionless}

  ZONEHVAC:IDEALLOADSAIRSYSTEM,
    Core_top Thermal Zone Ideal Loads Air System,  !- Name
    ,                        !- Availability Schedule Name
    Core_top Thermal Zone Ideal Loads Supply Inlet,  !- Zone Supply Air Node Name
    ,                        !- Zone Exhaust Air Node Name
    ,                        !- System Inlet Air Node Name
    50,                      !- Maximum Heating Supply Air Temperature {C}
    10,                      !- Minimum Cooling Supply Air Temperature {C}
    0.02,                    !- Maximum Heating Supply Air Humidity Ratio {kgWater/kgDryAir}
    0.02,                    !- Minimum Cooling Supply Air Humidity Ratio {kgWater/kgDryAir}
    NoLimit,                 !- Heating Limit
    ,                        !- Maximum Heating Air Flow Rate {m3/s}
    ,                        !- Maximum Sensible Heating Capacity {W}
    LimitFlowRate,           !- Cooling Limit
    autosize,                !- Maximum Cooling Air Flow Rate {m3/s}
    ,                        !- Maximum Total Cooling Capacity {W}
    ,                        !- Heating Availability Schedule Name
    ,                        !- Cooling Availability Schedule Name
    Humidistat,              !- Dehumidification Control Type
    0.7,                     !- Cooling Sensible Heat Ratio {dimensionless}
    Humidistat,              !- Humidification Control Type
    Office WholeBuilding - Md Office Outdoor Air Flow,  !- Design Specification Outdoor Air Object Name
    Core_top Thermal Zone Ideal Loads Outdoor Air Inlet,  !- Outdoor Air Inlet Node Name
    None,                    !- Demand Controlled Ventilation Type
    NoEconomizer,            !- Outdoor Air Economizer Type
    Enthalpy,                !- Heat Recovery Type
    0,                       !- Sensible Heat Recovery Effectiveness {dimensionless}
    0;                       !- Latent Heat Recovery Effectiveness {dimensionless}

  ZONEHVAC:IDEALLOADSAIRSYSTEM,
    Perimeter_bot_ZN_2 Thermal Zone Ideal Loads Air System,  !- Name
    ,                        !- Availability Schedule Name
    Perimeter_bot_ZN_2 Thermal Zone Ideal Loads Supply Inlet,  !- Zone Supply Air Node Name
    ,                        !- Zone Exhaust Air Node Name
    ,                        !- System Inlet Air Node Name
    50,                      !- Maximum Heating Supply Air Temperature {C}
    10,                      !- Minimum Cooling Supply Air Temperature {C}
    0.02,                    !- Maximum Heating Supply Air Humidity Ratio {kgWater/kgDryAir}
    0.02,                    !- Minimum Cooling Supply Air Humidity Ratio {kgWater/kgDryAir}
    NoLimit,                 !- Heating Limit
    ,                        !- Maximum Heating Air Flow Rate {m3/s}
    ,                        !- Maximum Sensible Heating Capacity {W}
    LimitFlowRate,           !- Cooling Limit
    autosize,                !- Maximum Cooling Air Flow Rate {m3/s}
    ,                        !- Maximum Total Cooling Capacity {W}
    ,                        !- Heating Availability Schedule Name
    ,                        !- Cooling Availability Schedule Name
    Humidistat,              !- Dehumidification Control Type
    0.7,                     !- Cooling Sensible Heat Ratio {dimensionless}
    Humidistat,              !- Humidification Control Type
    Office WholeBuilding - Md Office Outdoor Air Flow,  !- Design Specification Outdoor Air Object Name
    Perimeter_bot_ZN_2 Thermal Zone Ideal Loads Outdoor Air Inlet,  !- Outdoor Air Inlet Node Name
    None,                    !- Demand Controlled Ventilation Type
    NoEconomizer,            !- Outdoor Air Economizer Type
    Enthalpy,                !- Heat Recovery Type
    0,                       !- Sensible Heat Recovery Effectiveness {dimensionless}
    0;                       !- Latent Heat Recovery Effectiveness {dimensionless}

  ZONEHVAC:EQUIPMENTLIST,
    Perimeter_mid_ZN_1 Thermal Zone Equipment,  !- Name
    SequentialLoad,          !- Load Distribution Scheme
    ZoneHVAC:IdealLoadsAirSystem,  !- Zone Equipment 1 Object Type
    Perimeter_mid_ZN_1 Thermal Zone Ideal Loads Air System,  !- Zone Equipment 1 Name
    1,                       !- Zone Equipment 1 Cooling Sequence
    1,                       !- Zone Equipment 1 Heating or No-Load Sequence
    ,                        !- Zone Equipment 1 Sequential Cooling Fraction Schedule Name
    ;                        !- Zone Equipment 1 Sequential Heating Fraction Schedule Name

  ZONEHVAC:EQUIPMENTLIST,
    Perimeter_top_ZN_3 Thermal Zone Equipment,  !- Name
    SequentialLoad,          !- Load Distribution Scheme
    ZoneHVAC:IdealLoadsAirSystem,  !- Zone Equipment 1 Object Type
    Perimeter_top_ZN_3 Thermal Zone Ideal Loads Air System,  !- Zone Equipment 1 Name
    1,                       !- Zone Equipment 1 Cooling Sequence
    1,                       !- Zone Equipment 1 Heating or No-Load Sequence
    ,                        !- Zone Equipment 1 Sequential Cooling Fraction Schedule Name
    ;                        !- Zone Equipment 1 Sequential Heating Fraction Schedule Name

  ZONEHVAC:EQUIPMENTLIST,
    Perimeter_mid_ZN_3 Thermal Zone Equipment,  !- Name
    SequentialLoad,          !- Load Distribution Scheme
    ZoneHVAC:IdealLoadsAirSystem,  !- Zone Equipment 1 Object Type
    Perimeter_mid_ZN_3 Thermal Zone Ideal Loads Air System,  !- Zone Equipment 1 Name
    1,                       !- Zone Equipment 1 Cooling Sequence
    1,                       !- Zone Equipment 1 Heating or No-Load Sequence
    ,                        !- Zone Equipment 1 Sequential Cooling Fraction Schedule Name
    ;                        !- Zone Equipment 1 Sequential Heating Fraction Schedule Name

  ZONEHVAC:EQUIPMENTLIST,
    Perimeter_mid_ZN_2 Thermal Zone Equipment,  !- Name
    SequentialLoad,          !- Load Distribution Scheme
    ZoneHVAC:IdealLoadsAirSystem,  !- Zone Equipment 1 Object Type
    Perimeter_mid_ZN_2 Thermal Zone Ideal Loads Air System,  !- Zone Equipment 1 Name
    1,                       !- Zone Equipment 1 Cooling Sequence
    1,                       !- Zone Equipment 1 Heating or No-Load Sequence
    ,                        !- Zone Equipment 1 Sequential Cooling Fraction Schedule Name
    ;                        !- Zone Equipment 1 Sequential Heating Fraction Schedule Name

  ZONEHVAC:EQUIPMENTLIST,
    Core_bottom Thermal Zone Equipment,  !- Name
    SequentialLoad,          !- Load Distribution Scheme
    ZoneHVAC:IdealLoadsAirSystem,  !- Zone Equipment 1 Object Type
    Core_bottom Thermal Zone Ideal Loads Air System,  !- Zone Equipment 1 Name
    1,                       !- Zone Equipment 1 Cooling Sequence
    1,                       !- Zone Equipment 1 Heating or No-Load Sequence
    ,                        !- Zone Equipment 1 Sequential Cooling Fraction Schedule Name
    ;                        !- Zone Equipment 1 Sequential Heating Fraction Schedule Name

  ZONEHVAC:EQUIPMENTLIST,
    Perimeter_top_ZN_2 Thermal Zone Equipment,  !- Name
    SequentialLoad,          !- Load Distribution Scheme
    ZoneHVAC:IdealLoadsAirSystem,  !- Zone Equipment 1 Object Type
    Perimeter_top_ZN_2 Thermal Zone Ideal Loads Air System,  !- Zone Equipment 1 Name
    1,                       !- Zone Equipment 1 Cooling Sequence
    1,                       !- Zone Equipment 1 Heating or No-Load Sequence
    ,                        !- Zone Equipment 1 Sequential Cooling Fraction Schedule Name
    ;                        !- Zone Equipment 1 Sequential Heating Fraction Schedule Name

  ZONEHVAC:EQUIPMENTLIST,
    Perimeter_top_ZN_4 Thermal Zone Equipment,  !- Name
    SequentialLoad,          !- Load Distribution Scheme
    ZoneHVAC:IdealLoadsAirSystem,  !- Zone Equipment 1 Object Type
    Perimeter_top_ZN_4 Thermal Zone Ideal Loads Air System,  !- Zone Equipment 1 Name
    1,                       !- Zone Equipment 1 Cooling Sequence
    1,                       !- Zone Equipment 1 Heating or No-Load Sequence
    ,                        !- Zone Equipment 1 Sequential Cooling Fraction Schedule Name
    ;                        !- Zone Equipment 1 Sequential Heating Fraction Schedule Name

  ZONEHVAC:EQUIPMENTLIST,
    Perimeter_mid_ZN_4 Thermal Zone Equipment,  !- Name
    SequentialLoad,          !- Load Distribution Scheme
    ZoneHVAC:IdealLoadsAirSystem,  !- Zone Equipment 1 Object Type
    Perimeter_mid_ZN_4 Thermal Zone Ideal Loads Air System,  !- Zone Equipment 1 Name
    1,                       !- Zone Equipment 1 Cooling Sequence
    1,                       !- Zone Equipment 1 Heating or No-Load Sequence
    ,                        !- Zone Equipment 1 Sequential Cooling Fraction Schedule Name
    ;                        !- Zone Equipment 1 Sequential Heating Fraction Schedule Name

  ZONEHVAC:EQUIPMENTLIST,
    Core_mid Thermal Zone Equipment,  !- Name
    SequentialLoad,          !- Load Distribution Scheme
    ZoneHVAC:IdealLoadsAirSystem,  !- Zone Equipment 1 Object Type
    Core_mid Thermal Zone Ideal Loads Air System,  !- Zone Equipment 1 Name
    1,                       !- Zone Equipment 1 Cooling Sequence
    1,                       !- Zone Equipment 1 Heating or No-Load Sequence
    ,                        !- Zone Equipment 1 Sequential Cooling Fraction Schedule Name
    ;                        !- Zone Equipment 1 Sequential Heating Fraction Schedule Name

  ZONEHVAC:EQUIPMENTLIST,
    Perimeter_bot_ZN_3 Thermal Zone Equipment,  !- Name
    SequentialLoad,          !- Load Distribution Scheme
    ZoneHVAC:IdealLoadsAirSystem,  !- Zone Equipment 1 Object Type
    Perimeter_bot_ZN_3 Thermal Zone Ideal Loads Air System,  !- Zone Equipment 1 Name
    1,                       !- Zone Equipment 1 Cooling Sequence
    1,                       !- Zone Equipment 1 Heating or No-Load Sequence
    ,                        !- Zone Equipment 1 Sequential Cooling Fraction Schedule Name
    ;                        !- Zone Equipment 1 Sequential Heating Fraction Schedule Name

  ZONEHVAC:EQUIPMENTLIST,
    Perimeter_bot_ZN_4 Thermal Zone Equipment,  !- Name
    SequentialLoad,          !- Load Distribution Scheme
    ZoneHVAC:IdealLoadsAirSystem,  !- Zone Equipment 1 Object Type
    Perimeter_bot_ZN_4 Thermal Zone Ideal Loads Air System,  !- Zone Equipment 1 Name
    1,                       !- Zone Equipment 1 Cooling Sequence
    1,                       !- Zone Equipment 1 Heating or No-Load Sequence
    ,                        !- Zone Equipment 1 Sequential Cooling Fraction Schedule Name
    ;                        !- Zone Equipment 1 Sequential Heating Fraction Schedule Name

  ZONEHVAC:EQUIPMENTLIST,
    Perimeter_top_ZN_1 Thermal Zone Equipment,  !- Name
    SequentialLoad,          !- Load Distribution Scheme
    ZoneHVAC:IdealLoadsAirSystem,  !- Zone Equipment 1 Object Type
    Perimeter_top_ZN_1 Thermal Zone Ideal Loads Air System,  !- Zone Equipment 1 Name
    1,                       !- Zone Equipment 1 Cooling Sequence
    1,                       !- Zone Equipment 1 Heating or No-Load Sequence
    ,                        !- Zone Equipment 1 Sequential Cooling Fraction Schedule Name
    ;                        !- Zone Equipment 1 Sequential Heating Fraction Schedule Name

  ZONEHVAC:EQUIPMENTLIST,
    Perimeter_bot_ZN_1 Thermal Zone Equipment,  !- Name
    SequentialLoad,          !- Load Distribution Scheme
    ZoneHVAC:IdealLoadsAirSystem,  !- Zone Equipment 1 Object Type
    Perimeter_bot_ZN_1 Thermal Zone Ideal Loads Air System,  !- Zone Equipment 1 Name
    1,                       !- Zone Equipment 1 Cooling Sequence
    1,                       !- Zone Equipment 1 Heating or No-Load Sequence
    ,                        !- Zone Equipment 1 Sequential Cooling Fraction Schedule Name
    ;                        !- Zone Equipment 1 Sequential Heating Fraction Schedule Name

  ZONEHVAC:EQUIPMENTLIST,
    Core_top Thermal Zone Equipment,  !- Name
    SequentialLoad,          !- Load Distribution Scheme
    ZoneHVAC:IdealLoadsAirSystem,  !- Zone Equipment 1 Object Type
    Core_top Thermal Zone Ideal Loads Air System,  !- Zone Equipment 1 Name
    1,                       !- Zone Equipment 1 Cooling Sequence
    1,                       !- Zone Equipment 1 Heating or No-Load Sequence
    ,                        !- Zone Equipment 1 Sequential Cooling Fraction Schedule Name
    ;                        !- Zone Equipment 1 Sequential Heating Fraction Schedule Name

  ZONEHVAC:EQUIPMENTLIST,
    Perimeter_bot_ZN_2 Thermal Zone Equipment,  !- Name
    SequentialLoad,          !- Load Distribution Scheme
    ZoneHVAC:IdealLoadsAirSystem,  !- Zone Equipment 1 Object Type
    Perimeter_bot_ZN_2 Thermal Zone Ideal Loads Air System,  !- Zone Equipment 1 Name
    1,                       !- Zone Equipment 1 Cooling Sequence
    1,                       !- Zone Equipment 1 Heating or No-Load Sequence
    ,                        !- Zone Equipment 1 Sequential Cooling Fraction Schedule Name
    ;                        !- Zone Equipment 1 Sequential Heating Fraction Schedule Name

  ZONEHVAC:EQUIPMENTCONNECTIONS,
    Perimeter_mid_ZN_1 Thermal Zone,  !- Zone Name
    Perimeter_mid_ZN_1 Thermal Zone Equipment,  !- Zone Conditioning Equipment List Name
    Perimeter_mid_ZN_1 Thermal Zone Ideal Loads Supply Inlet,  !- Zone Air Inlet Node or NodeList Name
    ,                        !- Zone Air Exhaust Node or NodeList Name
    Perimeter_mid_ZN_1 Thermal Zone Zone Air Node,  !- Zone Air Node Name
    Perimeter_mid_ZN_1 Thermal Zone Return Outlet;  !- Zone Return Air Node or NodeList Name

  ZONEHVAC:EQUIPMENTCONNECTIONS,
    Perimeter_top_ZN_3 Thermal Zone,  !- Zone Name
    Perimeter_top_ZN_3 Thermal Zone Equipment,  !- Zone Conditioning Equipment List Name
    Perimeter_top_ZN_3 Thermal Zone Ideal Loads Supply Inlet,  !- Zone Air Inlet Node or NodeList Name
    ,                        !- Zone Air Exhaust Node or NodeList Name
    Perimeter_top_ZN_3 Thermal Zone Zone Air Node,  !- Zone Air Node Name
    Perimeter_top_ZN_3 Thermal Zone Return Outlet;  !- Zone Return Air Node or NodeList Name

  ZONEHVAC:EQUIPMENTCONNECTIONS,
    Perimeter_mid_ZN_3 Thermal Zone,  !- Zone Name
    Perimeter_mid_ZN_3 Thermal Zone Equipment,  !- Zone Conditioning Equipment List Name
    Perimeter_mid_ZN_3 Thermal Zone Ideal Loads Supply Inlet,  !- Zone Air Inlet Node or NodeList Name
    ,                        !- Zone Air Exhaust Node or NodeList Name
    Perimeter_mid_ZN_3 Thermal Zone Zone Air Node,  !- Zone Air Node Name
    Perimeter_mid_ZN_3 Thermal Zone Return Outlet;  !- Zone Return Air Node or NodeList Name

  ZONEHVAC:EQUIPMENTCONNECTIONS,
    Perimeter_mid_ZN_2 Thermal Zone,  !- Zone Name
    Perimeter_mid_ZN_2 Thermal Zone Equipment,  !- Zone Conditioning Equipment List Name
    Perimeter_mid_ZN_2 Thermal Zone Ideal Loads Supply Inlet,  !- Zone Air Inlet Node or NodeList Name
    ,                        !- Zone Air Exhaust Node or NodeList Name
    Perimeter_mid_ZN_2 Thermal Zone Zone Air Node,  !- Zone Air Node Name
    Perimeter_mid_ZN_2 Thermal Zone Return Outlet;  !- Zone Return Air Node or NodeList Name

  ZONEHVAC:EQUIPMENTCONNECTIONS,
    Core_bottom Thermal Zone,!- Zone Name
    Core_bottom Thermal Zone Equipment,  !- Zone Conditioning Equipment List Name
    Core_bottom Thermal Zone Ideal Loads Supply Inlet,  !- Zone Air Inlet Node or NodeList Name
    ,                        !- Zone Air Exhaust Node or NodeList Name
    Core_bottom Thermal Zone Zone Air Node,  !- Zone Air Node Name
    Core_bottom Thermal Zone Return Outlet;  !- Zone Return Air Node or NodeList Name

  ZONEHVAC:EQUIPMENTCONNECTIONS,
    Perimeter_top_ZN_2 Thermal Zone,  !- Zone Name
    Perimeter_top_ZN_2 Thermal Zone Equipment,  !- Zone Conditioning Equipment List Name
    Perimeter_top_ZN_2 Thermal Zone Ideal Loads Supply Inlet,  !- Zone Air Inlet Node or NodeList Name
    ,                        !- Zone Air Exhaust Node or NodeList Name
    Perimeter_top_ZN_2 Thermal Zone Zone Air Node,  !- Zone Air Node Name
    Perimeter_top_ZN_2 Thermal Zone Return Outlet;  !- Zone Return Air Node or NodeList Name

  ZONEHVAC:EQUIPMENTCONNECTIONS,
    Perimeter_top_ZN_4 Thermal Zone,  !- Zone Name
    Perimeter_top_ZN_4 Thermal Zone Equipment,  !- Zone Conditioning Equipment List Name
    Perimeter_top_ZN_4 Thermal Zone Ideal Loads Supply Inlet,  !- Zone Air Inlet Node or NodeList Name
    ,                        !- Zone Air Exhaust Node or NodeList Name
    Perimeter_top_ZN_4 Thermal Zone Zone Air Node,  !- Zone Air Node Name
    Perimeter_top_ZN_4 Thermal Zone Return Outlet;  !- Zone Return Air Node or NodeList Name

  ZONEHVAC:EQUIPMENTCONNECTIONS,
    Perimeter_mid_ZN_4 Thermal Zone,  !- Zone Name
    Perimeter_mid_ZN_4 Thermal Zone Equipment,  !- Zone Conditioning Equipment List Name
    Perimeter_mid_ZN_4 Thermal Zone Ideal Loads Supply Inlet,  !- Zone Air Inlet Node or NodeList Name
    ,                        !- Zone Air Exhaust Node or NodeList Name
    Perimeter_mid_ZN_4 Thermal Zone Zone Air Node,  !- Zone Air Node Name
    Perimeter_mid_ZN_4 Thermal Zone Return Outlet;  !- Zone Return Air Node or NodeList Name

  ZONEHVAC:EQUIPMENTCONNECTIONS,
    Core_mid Thermal Zone,   !- Zone Name
    Core_mid Thermal Zone Equipment,  !- Zone Conditioning Equipment List Name
    Core_mid Thermal Zone Ideal Loads Supply Inlet,  !- Zone Air Inlet Node or NodeList Name
    ,                        !- Zone Air Exhaust Node or NodeList Name
    Core_mid Thermal Zone Zone Air Node,  !- Zone Air Node Name
    Core_mid Thermal Zone Return Outlet;  !- Zone Return Air Node or NodeList Name

  ZONEHVAC:EQUIPMENTCONNECTIONS,
    Perimeter_bot_ZN_3 Thermal Zone,  !- Zone Name
    Perimeter_bot_ZN_3 Thermal Zone Equipment,  !- Zone Conditioning Equipment List Name
    Perimeter_bot_ZN_3 Thermal Zone Ideal Loads Supply Inlet,  !- Zone Air Inlet Node or NodeList Name
    ,                        !- Zone Air Exhaust Node or NodeList Name
    Perimeter_bot_ZN_3 Thermal Zone Zone Air Node,  !- Zone Air Node Name
    Perimeter_bot_ZN_3 Thermal Zone Return Outlet;  !- Zone Return Air Node or NodeList Name

  ZONEHVAC:EQUIPMENTCONNECTIONS,
    Perimeter_bot_ZN_4 Thermal Zone,  !- Zone Name
    Perimeter_bot_ZN_4 Thermal Zone Equipment,  !- Zone Conditioning Equipment List Name
    Perimeter_bot_ZN_4 Thermal Zone Ideal Loads Supply Inlet,  !- Zone Air Inlet Node or NodeList Name
    ,                        !- Zone Air Exhaust Node or NodeList Name
    Perimeter_bot_ZN_4 Thermal Zone Zone Air Node,  !- Zone Air Node Name
    Perimeter_bot_ZN_4 Thermal Zone Return Outlet;  !- Zone Return Air Node or NodeList Name

  ZONEHVAC:EQUIPMENTCONNECTIONS,
    Perimeter_top_ZN_1 Thermal Zone,  !- Zone Name
    Perimeter_top_ZN_1 Thermal Zone Equipment,  !- Zone Conditioning Equipment List Name
    Perimeter_top_ZN_1 Thermal Zone Ideal Loads Supply Inlet,  !- Zone Air Inlet Node or NodeList Name
    ,                        !- Zone Air Exhaust Node or NodeList Name
    Perimeter_top_ZN_1 Thermal Zone Zone Air Node,  !- Zone Air Node Name
    Perimeter_top_ZN_1 Thermal Zone Return Outlet;  !- Zone Return Air Node or NodeList Name

  ZONEHVAC:EQUIPMENTCONNECTIONS,
    Perimeter_bot_ZN_1 Thermal Zone,  !- Zone Name
    Perimeter_bot_ZN_1 Thermal Zone Equipment,  !- Zone Conditioning Equipment List Name
    Perimeter_bot_ZN_1 Thermal Zone Ideal Loads Supply Inlet,  !- Zone Air Inlet Node or NodeList Name
    ,                        !- Zone Air Exhaust Node or NodeList Name
    Perimeter_bot_ZN_1 Thermal Zone Zone Air Node,  !- Zone Air Node Name
    Perimeter_bot_ZN_1 Thermal Zone Return Outlet;  !- Zone Return Air Node or NodeList Name

  ZONEHVAC:EQUIPMENTCONNECTIONS,
    Core_top Thermal Zone,   !- Zone Name
    Core_top Thermal Zone Equipment,  !- Zone Conditioning Equipment List Name
    Core_top Thermal Zone Ideal Loads Supply Inlet,  !- Zone Air Inlet Node or NodeList Name
    ,                        !- Zone Air Exhaust Node or NodeList Name
    Core_top Thermal Zone Zone Air Node,  !- Zone Air Node Name
    Core_top Thermal Zone Return Outlet;  !- Zone Return Air Node or NodeList Name

  ZONEHVAC:EQUIPMENTCONNECTIONS,
    Perimeter_bot_ZN_2 Thermal Zone,  !- Zone Name
    Perimeter_bot_ZN_2 Thermal Zone Equipment,  !- Zone Conditioning Equipment List Name
    Perimeter_bot_ZN_2 Thermal Zone Ideal Loads Supply Inlet,  !- Zone Air Inlet Node or NodeList Name
    ,                        !- Zone Air Exhaust Node or NodeList Name
    Perimeter_bot_ZN_2 Thermal Zone Zone Air Node,  !- Zone Air Node Name
    Perimeter_bot_ZN_2 Thermal Zone Return Outlet;  !- Zone Return Air Node or NodeList Name

  OUTDOORAIR:NODE,
    OA_Node_DHW,             !- Name
    -1,                      !- Height Above Ground {m}
    ,                        !- Drybulb Temperature Schedule Name
    ,                        !- Wetbulb Temperature Schedule Name
    ,                        !- Wind Speed Schedule Name
    ,                        !- Wind Direction Schedule Name
    ,                        !- Wind Pressure Coefficient Curve Name
    No,                      !- Symmetric Wind Pressure Coefficient Curve
    Absolute;                !- Wind Angle Type

  WATERHEATER:MIXED,
    DHW_heater,              !- Name
    autosize,                !- Tank Volume {m3}
    DHW temp,                !- Setpoint Temperature Schedule Name
    2,                       !- Deadband Temperature Difference {deltaC}
    ,                        !- Maximum Temperature Limit {C}
    Modulate,                !- Heater Control Type
    autosize,                !- Heater Maximum Capacity {W}
    0,                       !- Heater Minimum Capacity {W}
    0,                       !- Heater Ignition Minimum Flow Rate {m3/s}
    0,                       !- Heater Ignition Delay {s}
    DistrictHeatingWater,    !- Heater Fuel Type
    1,                       !- Heater Thermal Efficiency
    ,                        !- Part Load Factor Curve Name
    0,                       !- Off Cycle Parasitic Fuel Consumption Rate {W}
    ,                        !- Off Cycle Parasitic Fuel Type
    0,                       !- Off Cycle Parasitic Heat Fraction to Tank
    0,                       !- On Cycle Parasitic Fuel Consumption Rate {W}
    ,                        !- On Cycle Parasitic Fuel Type
    0,                       !- On Cycle Parasitic Heat Fraction to Tank
    Outdoors,                !- Ambient Temperature Indicator
    ,                        !- Ambient Temperature Schedule Name
    ,                        !- Ambient Temperature Zone Name
    OA_Node_DHW,             !- Ambient Temperature Outdoor Air Node Name
    ,                        !- Off Cycle Loss Coefficient to Ambient Temperature {W/K}
    1,                       !- Off Cycle Loss Fraction to Zone
    ,                        !- On Cycle Loss Coefficient to Ambient Temperature {W/K}
    1,                       !- On Cycle Loss Fraction to Zone
    0.0005005,            !- Peak Use Flow Rate {m3/s}
    NECB A SWH,              !- Use Flow Rate Fraction Schedule Name
    DHW Inlet temp,          !- Cold Water Supply Temperature Schedule Name
    ,                        !- Use Side Inlet Node Name
    ,                        !- Use Side Outlet Node Name
    1,                       !- Use Side Effectiveness
    ,                        !- Source Side Inlet Node Name
    ,                        !- Source Side Outlet Node Name
    1,                       !- Source Side Effectiveness
    autosize,                !- Use Side Design Flow Rate {m3/s}
    autosize,                !- Source Side Design Flow Rate {m3/s}
    1.5,                     !- Indirect Water Heating Recovery Time {hr}
    IndirectHeatPrimarySetpoint,  !- Source Side Flow Control Mode
    ,                        !- Indirect Alternate Setpoint Temperature Schedule Name
    Domestic Water;          !- End-Use Subcategory

  WATERHEATER:SIZING,
    DHW_heater,              !- WaterHeater Name
    PeakDraw,                !- Design Mode
    0.5,                     !- Time Storage Can Meet Peak Draw {hr}
    0.5,                     !- Time for Tank Recovery {hr}
    1;                       !- Nominal Tank Volume for Autosizing Plant Connections {m3}

  EnergyManagementSystem:GlobalVariable,
    IDF_Name,                !- Erl Variable 1 Name
    Medium_Office;           !- Erl Variable 2 Name

  GENERATOR:PVWATTS,
    SolarPV,                 !- Name
    5,                       !- PVWatts Version
    10000,                   !- DC System Capacity {W}
    Premium,                 !- Module Type
    FixedRoofMounted,        !- Array Type
    0.14,                    !- System Losses
    TiltAzimuth,             !- Array Geometry Type
    30,                      !- Tilt Angle {deg}
    180,                     !- Azimuth Angle {deg}
    ,                        !- Surface Name
    0.4;                     !- Ground Coverage Ratio

  ELECTRICLOADCENTER:INVERTER:PVWATTS,
    PV Load Center,          !- Name
    1.1,                     !- DC to AC Size Ratio
    0.96;                    !- Inverter Efficiency

  ELECTRICLOADCENTER:GENERATORS,
    PV Generator,            !- Name
    SolarPV,                 !- Generator 1 Name
    Generator:PVWatts,       !- Generator 1 Object Type
    10000000,                !- Generator 1 Rated Electric Power Output {W}
    Always On Schedule,      !- Generator 1 Availability Schedule Name
    ;                        !- Generator 1 Rated Thermal to Electrical Power Ratio

  ELECTRICLOADCENTER:DISTRIBUTION,
    PV Distribution,         !- Name
    PV Generator,            !- Generator List Name
    Baseload,                !- Generator Operation Scheme Type
    ,                        !- Generator Demand Limit Scheme Purchased Electric Demand Limit {W}
    ,                        !- Generator Track Schedule Name Scheme Schedule Name
    ,                        !- Generator Track Meter Scheme Meter Name
    AlternatingCurrent,      !- Electrical Buss Type
    PV Load Center,          !- Inverter Name
    ,                        !- Electrical Storage Object Name
    ,                        !- Transformer Object Name
    TrackFacilityElectricDemandStoreExcessOnSite,  !- Storage Operation Scheme
    ,                        !- Storage Control Track Meter Name
    ,                        !- Storage Converter Object Name
    1,                       !- Maximum Storage State of Charge Fraction
    0;                       !- Minimum Storage State of Charge Fraction

  OUTPUTCONTROL:REPORTINGTOLERANCES,
    1,                       !- Tolerance for Time Heating Setpoint Not Met {deltaC}
    1;                       !- Tolerance for Time Cooling Setpoint Not Met {deltaC}

  OUTPUT:METER,DistrictHeatingWater:Facility;

  OUTPUT:METER,DistrictCooling:Facility;

  OUTPUT:VARIABLE,*,Site Outdoor Air Drybulb Temperature,hourly;
  OUTPUT:VARIABLE,*,Site Outdoor Air Relative Humidity,hourly;
  OUTPUT:VARIABLE,*,Site Wind Speed,hourly;
  OUTPUT:VARIABLE,*,Site Diffuse Solar Radiation Rate per Area,hourly;
  OUTPUT:VARIABLE,*,Site Direct Solar Radiation Rate per Area,hourly;
  OUTPUT:VARIABLE,NECB A Occupancy,Schedule Value,hourly;
  OUTPUT:VARIABLE,NECB A Lighting,Schedule Value,hourly;
  OUTPUT:VARIABLE,NECB A Receptacle,Schedule Value,hourly;
  OUTPUT:VARIABLE,NECB A Fans,Schedule Value,hourly;
  OUTPUT:VARIABLE,NECB A Heating,Schedule Value,hourly;
  OUTPUT:VARIABLE,NECB A Cooling,Schedule Value,hourly;

  OutputControl:Files,
    Yes,                      !- Output CSV
    No,                       !- Output MTR
    No,                       !- Output ESO
    No,                       !- Output EIO
    No,                       !- Output Tabular
    No,                       !- Output SQLite
    No,                       !- Output JSON
    No,                       !- Output AUDIT
    No,                       !- Output Zone Sizing
    No,                       !- Output System Sizing
    No,                       !- Output DXF
    No,                       !- Output BND
    No,                       !- Output RDD
    No,                       !- Output MDD
    No,                       !- Output MTD
    No,                       !- Output END
    No,                       !- Output SHD
    No,                       !- Output DFS
    No,                       !- Output GLHE
    No,                       !- Output DelightIn
    No,                       !- Output DelightELdmp
    No,                       !- Output DelightDFdmp
    No,                       !- Output EDD
    No,                       !- Output DBG
    No,                       !- Output PerfLog
    No,                       !- Output SLN
    No,                       !- Output SCI
    No,                       !- Output WRL
    No,                       !- Output Screen
    No,                       !- Output ExtShd
    No;                       !- Output Tarcog